# CELL file written 00:33:26 (GMT+1.0) 28th October 2022 from run 9x9

%BLOCK lattice_cart
   ANG
       22.2300000000000        0.00000000000000        0.00000000000000    
      -11.1150000000000        19.2517450000000        0.00000000000000    
       0.00000000000000        0.00000000000000        20.0340000000000    
%ENDBLOCK lattice_cart

%BLOCK cell_constraints
      0   0   0
      0   0   0
%ENDBLOCK cell_constraints

%BLOCK positions_frac
   H              0.407307782806704       0.370268061495427       0.584748070446836
   C              0.073876857728955       0.036888013368439       0.498691341295929
   C             -0.000138144022109      -0.000090401549040       0.498200429572935
   C              0.073589743182575       0.147857025623549       0.498660672819700
   C             -0.000358788577408       0.110835558663625       0.498156551483065
   C              0.073531114974212       0.258868120745729       0.498672334323034
   C             -0.000412553938006       0.221859805131742       0.498167589962781
   C              0.073682291460444       0.370106714735600       0.498706173228172
   C             -0.000337990237686       0.333062157916926       0.498218779649523
   C              0.073770516098130       0.481316428903514       0.498727208948552
   C             -0.000199378625658       0.444289827949765       0.498404282357581
   C              0.073846399678630       0.592529940220706       0.498930263638156
   C             -0.000195068266251       0.555463150732375       0.498841311138526
   C              0.073844395168777       0.703798050786886       0.498972062149258
   C             -0.000171945462820       0.666701936823850       0.498986118367704
   C              0.073921679388844       0.815089429893867       0.498939326711410
   C             -0.000142576798985       0.777924226679564       0.498843462692886
   C              0.073880756493115       0.926088415250702       0.498727693381899
   C             -0.000126229821447       0.889021536250691       0.498396005866750
   C              0.185015986519519       0.037000042585250       0.499829464108770
   C              0.110925554745189      -0.000042823092396       0.498993313070074
   C              0.184760067380212       0.147818127113139       0.500344143372770
   C              0.110677266095729       0.110814958382569       0.499058368058606
   C              0.184624651892030       0.258908000316133       0.500636336864373
   C              0.110382327386178       0.221784303031584       0.499113538962835
   C              0.184688745286009       0.370096084456665       0.500336805092193
   C              0.110563820516982       0.333009150294662       0.499070599073988
   C              0.184956693153716       0.481194039975695       0.499809874626777
   C              0.110759772070787       0.444163535396778       0.498994979288225
   C              0.185058483504836       0.592457237766687       0.499146723625133
   C              0.110796280367491       0.555403492300160       0.498944005637593
   C              0.185018510343586       0.703778269923100       0.498928451005920
   C              0.110855445292707       0.666681823738641       0.498977169040735
   C              0.185065394548481       0.815118238960364       0.498937560836412
   C              0.110900453422923       0.777970465105620       0.498985261996650
   C              0.185129532343754       0.926294848272031       0.499164347775232
   C              0.110917645416086       0.889156914549864       0.498955497513964
   C              0.296234525652046       0.036957100932306       0.499835173228679
   C              0.222035062837588      -0.000142222769437       0.499688936076918
   C              0.296393866853518       0.148477175408709       0.502812024430262
   C              0.221846386529454       0.110916348451329       0.501023842854321
   C              0.295715184761538       0.259271647686660       0.506229363810628
   C              0.221592074975362       0.221944884653470       0.501661696517749
   C              0.295707779234465       0.369646673090641       0.506210312795058
   C              0.221568013809302       0.332832942868158       0.501654125266697
   C              0.296420475301549       0.481123059662881       0.502765271878489
   C              0.221831821138777       0.444100495492439       0.500994808463934
   C              0.296327924423154       0.592574622661556       0.499804181757284
   C              0.222023758337321       0.555488860922294       0.499662647211981
   C              0.296231011683552       0.703863827509804       0.498725119836650
   C              0.222105082909314       0.666749966422322       0.498944344285193
   C              0.296237365464782       0.815072616797199       0.498531998522872
   C              0.222141086089954       0.778006888188301       0.498836891918425
   C              0.296241990390710       0.926100311544468       0.498738690357006
   C              0.222188571540217       0.889189619534851       0.498959804353834
   C              0.407273832627891       0.036717273106662       0.498704738909347
   C              0.333260215750988      -0.000110583617010       0.499005811629799
   C              0.407342244054506       0.147753015994956       0.500340001025524
   C              0.333343048003808       0.110874164779920       0.501026039787020
   C              0.407894611627510       0.259267970038343       0.506219517230578
   C              0.333056638500946       0.221785442259542       0.506300652244165
   C              0.407313911060937       0.370270902236656       0.528642447875209
   C              0.331307314004554       0.332259651945755       0.510831718775272
   C              0.407931451217165       0.481867901490186       0.506202613318308
   C              0.333081732925150       0.444481692250143       0.506264755833879
   C              0.407455340259577       0.592870044074430       0.500322117172152
   C              0.333435451544204       0.555709662714421       0.500986255324859
   C              0.407461766811977       0.703959552102770       0.498698857160413
   C              0.333359470233512       0.666799592965862       0.498989222451574
   C              0.407484441490161       0.815125864071047       0.498140876252876
   C              0.333328498252036       0.778017540795116       0.498401652145168
   C              0.407438248631598       0.926100417435368       0.498145479981728
   C              0.333355585766041       0.889177699540176       0.498409190690049
   C              0.518447710662443       0.036674913065236       0.498081114436662
   C              0.444403567958103      -0.000238170776660       0.498223667673187
   C              0.518576920719984       0.147800856662734       0.498644802028199
   C              0.444380682867875       0.110686849931937       0.499055566648490
   C              0.518614082780504       0.258932586796488       0.500612154317427
   C              0.444665738526929       0.221917452112696       0.501647872909070
   C              0.518306581685982       0.369678126534926       0.506211519384854
   C              0.445304893589471       0.332262533519316       0.510825186553933
   C              0.518327909045711       0.481886052562053       0.506227566309260
   C              0.445325789152418       0.446279017049995       0.510827944922087
   C              0.518689027205444       0.592970524859985       0.500634796356722
   C              0.444742867316391       0.556005791337946       0.501643977225011
   C              0.518744568693722       0.704131593824397       0.498665197368420
   C              0.444544023934155       0.667014591029585       0.499055590170824
   C              0.518689421009491       0.815243824751481       0.498091783204036
   C              0.444575919905610       0.778165478990563       0.498223783478117
   C              0.518616594020721       0.926122206660752       0.498011869020643
   C              0.444593643884820       0.889209849262386       0.498016589489571
   C              0.629655820382120       0.036771241708804       0.498049670451237
   C              0.555580018456135      -0.000177102406907       0.498032209412167
   C              0.629694767272579       0.147839611648138       0.498058038833612
   C              0.555602068826273       0.110744336307404       0.498157309015432
   C              0.629743922687350       0.258952666175717       0.498639381367197
   C              0.555729377796931       0.221797325373214       0.499081985776385
   C              0.629807436668648       0.370208518488593       0.500323214932108
   C              0.555629591722580       0.332881773045128       0.501639358605241
   C              0.629115307425231       0.481194557294368       0.502798974427950
   C              0.555795759368675       0.444522597975291       0.506290427861759
   C              0.629833341666768       0.592887402552251       0.500354403000807
   C              0.555668169250444       0.556015763133161       0.501668366371154
   C              0.629832317832882       0.704125589019112       0.498672517885318
   C              0.555836010650255       0.667240180862641       0.499110642745092
   C              0.629881999695117       0.815256382548950       0.498084879421212
   C              0.555808465318368       0.778246907440389       0.498180955061527
   C              0.629835542720296       0.926192233080458       0.498054612911515
   C              0.555770871540520       0.889268382019956       0.498036954954779
   C              0.740834581977230       0.036817732101527       0.498011954809851
   C              0.666784973970077      -0.000106582400845       0.498037472717579
   C              0.740873165215169       0.147906399028467       0.498033269937195
   C              0.666760194379920       0.110792380750140       0.498033606641030
   C              0.740974021349016       0.259113199020297       0.498051943481095
   C              0.666808802633170       0.221926243464974       0.498145304787100
   C              0.740931463577848       0.370292674908903       0.498688782259444
   C              0.666876050060963       0.333154617118438       0.499043510114771
   C              0.740706184601640       0.481361989559537       0.499828402186754
   C              0.666704413266644       0.444217915498843       0.501007860217522
   C              0.740708176884542       0.592661150642726       0.499841442093899
   C              0.666711514598992       0.555770711906256       0.501026787728098
   C              0.740935963503042       0.703950864791929       0.498711105017253
   C              0.666906343111305       0.667017632235631       0.499074981636558
   C              0.741033374631154       0.815210546434622       0.498071362713998
   C              0.666913940620473       0.778230107195567       0.498175721351378
   C              0.740961187304571       0.926200949121036       0.498039984358747
   C              0.666949351376183       0.889331651253271       0.498047036505447
   C              0.851984843089608       0.036842515171148       0.498042559382111
   C              0.777929487222644      -0.000082350659061       0.498031197761513
   C              0.852015890519457       0.147956503331346       0.498045591787598
   C              0.777906483577197       0.110859007671645       0.498030701650271
   C              0.852095157722133       0.259191070721207       0.497988318728990
   C              0.777984179496366       0.222047160087630       0.498002536934946
   C              0.852118666123834       0.370372693331050       0.498120738129827
   C              0.778046958356245       0.333229351194447       0.498195115655349
   C              0.852115553809201       0.481561764666939       0.498733078350902
   C              0.777918315218420       0.444386651941500       0.498998252724309
   C              0.851906701391506       0.592649180775682       0.499174211126009
   C              0.777966684683920       0.555649776030217       0.499694629406841
   C              0.852105545803976       0.703917636139303       0.498738081237265
   C              0.777915752832180       0.666853918260016       0.499013305803962
   C              0.852060461202936       0.815034044304040       0.498118931974529
   C              0.778030463436794       0.778121468274153       0.498209610083622
   C              0.852011001548412       0.926086958066641       0.497981794824676
   C              0.778012465490856       0.889239009731408       0.498009358157063
   C              0.962965164503805       0.036873155047087       0.498063250740907
   C              0.889008558830016      -0.000124122720885       0.498011861616233
   C              0.962938684786148       0.147966188646608       0.498065115363851
   C              0.888954876897207       0.110867524832306       0.498038769403055
   C              0.962961793107194       0.259141267623061       0.498078055096088
   C              0.889032681274927       0.222068083928991       0.498020675772973
   C              0.963078565342176       0.370333405423127       0.498136398135605
   C              0.889098611856048       0.333261797392791       0.497997550588624
   C              0.963125384815908       0.481561166236297       0.498534414606978
   C              0.889131277024006       0.444493832636688       0.498398496981470
   C              0.963070439997305       0.592714916753060       0.498939845507260
   C              0.889105934381717       0.555636718408120       0.498961955293769
   C              0.963086271673465       0.703895092493801       0.498941671818037
   C              0.889112934341283       0.666884004093016       0.498964851370703
   C              0.963122180254950       0.815024597229687       0.498528853619068
   C              0.889112613464511       0.777998090796246       0.498395296050456
   C              0.962953837609381       0.925994388149353       0.498119963226016
   C              0.888978255171449       0.889071721488329       0.497986389402188
%ENDBLOCK positions_frac

FIX_COM : false

%BLOCK species_gamma
   radsectesla
   H          267522128.0    
%ENDBLOCK species_gamma

%BLOCK species_pot
   H       1|0.6|13|15|17|10(qc=8)
   C       1|1.2|17|20|23|20N:21L(qc=8)
%ENDBLOCK species_pot

SYMMETRY_TOL :     0.001000

%BLOCK symmetry_ops
# Symm. op. 1       E
          1.000000000000000       0.000000000000000       0.000000000000000
          0.000000000000000       1.000000000000000       0.000000000000000
          0.000000000000000       0.000000000000000       1.000000000000000
          0.000000000000000       0.000000000000000       0.000000000000000
%ENDBLOCK symmetry_ops

kpoint_mp_grid :    1   1   1

