# CELL file written 22:35:41 (GMT+1.0) 27th October 2022 from run 9x9

%BLOCK lattice_cart
   ANG
       22.2300000000000        0.00000000000000        0.00000000000000    
      -11.1150000000000        19.2517450000000        0.00000000000000    
       0.00000000000000        0.00000000000000        20.0340000000000    
%ENDBLOCK lattice_cart

%BLOCK cell_constraints
      0   0   0
      0   0   0
%ENDBLOCK cell_constraints

%BLOCK positions_frac
   H              0.448481008256217       0.450028517373763       0.588886987966153
   H              0.327533620703402       0.329054244189141       0.588918191472639
   C              0.073735444957425       0.036515517378753       0.497783077210947
   C             -0.000091647663796      -0.000184511135128       0.497909650323189
   C              0.073841699320921       0.147710695230968       0.500170786753186
   C              0.000049990607955       0.110941365051589       0.499156842952173
   C              0.073883925257918       0.259197893167124       0.499939946925527
   C              0.000116551065160       0.222195409277295       0.499026723858610
   C              0.073816783473857       0.370305059373032       0.497088006217148
   C             -0.000112166432032       0.333226310945856       0.497451901308834
   C              0.073781265649589       0.481449192209287       0.496060899031253
   C             -0.000141657701533       0.444361219938026       0.496681366293237
   C              0.073838295989592       0.592599537442292       0.496747146408978
   C             -0.000080720138388       0.555541570433649       0.497032054079609
   C              0.073877846848477       0.703743460938590       0.497433041871460
   C             -0.000021505993052       0.666719522728139       0.497506631207408
   C              0.073848515811147       0.814809956029052       0.497576853131505
   C             -0.000058393608188       0.777824797260113       0.497758368928661
   C              0.073745413761572       0.925715425821051       0.497254300065560
   C             -0.000194002172655       0.888841711965175       0.497599731827708
   C              0.184565498309200       0.036093452880152       0.497208478261953
   C              0.110734575394850      -0.000537890794460       0.497192646424640
   C              0.184603781631159       0.147145544513329       0.500450077349615
   C              0.110679242930628       0.110539532562514       0.499161035062881
   C              0.184655752360697       0.258745818957152       0.506417648147992
   C              0.111402098626007       0.222217339095181       0.502151296234889
   C              0.184983616440344       0.370494675909747       0.500145623539210
   C              0.110975378184983       0.333263761560994       0.498648370669848
   C              0.184834959983190       0.481523960290484       0.495969058614239
   C              0.110825619727821       0.444372862042304       0.496042166906629
   C              0.184854262734297       0.592641514517105       0.495553432182983
   C              0.110806861113339       0.555501734480229       0.496006682579423
   C              0.184922117268035       0.703762895072443       0.496684923601271
   C              0.110859262498381       0.666656176437193       0.497025636656351
   C              0.184939512970547       0.814844383358230       0.497171447943500
   C              0.110861844655462       0.777797390150458       0.497460631708240
   C              0.184797803884558       0.925661860448736       0.496891837707158
   C              0.110812258206899       0.888839172639297       0.497230977209140
   C              0.295724974071672       0.036248619964271       0.496886215367290
   C              0.221734713413120      -0.000638149352002       0.496753369565858
   C              0.295437739569559       0.147037886427619       0.499718056023075
   C              0.221587877828073       0.110207501724036       0.498852743124202
   C              0.294653216232088       0.256566148934197       0.511689709181501
   C              0.221931257919341       0.221238138376411       0.506134244183375
   C              0.295121044701501       0.370835894002957       0.513306360359182
   C              0.222532508345755       0.333722797026806       0.506592593420292
   C              0.295967492528123       0.481555747007171       0.500449058736236
   C              0.222026983305173       0.444437752276086       0.498328174600030
   C              0.295976392438186       0.592678953238470       0.495984216120675
   C              0.221932874087409       0.555562891802384       0.495389030611222
   C              0.296075942967905       0.703833006348351       0.496019789543969
   C              0.221986914775314       0.666718784968930       0.495964867609806
   C              0.296123722230168       0.814958641377992       0.496801816810909
   C              0.222039013639053       0.777872230196113       0.496936871098793
   C              0.296010623763819       0.925798363761040       0.496909229482097
   C              0.222006854762150       0.888871385108781       0.496970216738775
   C              0.406939288339900       0.036604151533816       0.497308434628888
   C              0.332935169656253      -0.000438584292273       0.496910953219024
   C              0.406705293513066       0.147592869164078       0.498695557442813
   C              0.332757859627170       0.110366252374821       0.497958681804133
   C              0.406602586295704       0.258414202370861       0.505120735764078
   C              0.332293222546552       0.221173755012532       0.505356363271384
   C              0.408399640198276       0.369157189072740       0.519533367002697
   C              0.331839673425390       0.331529029334181       0.532881595508356
   C              0.406714868624346       0.482430709880380       0.513266231312703
   C              0.333151181842493       0.444387976576208       0.508356474739628
   C              0.407038911827822       0.592555416061090       0.500152700005710
   C              0.333081256418450       0.555496488287196       0.498334086210043
   C              0.407242695828667       0.703810553106012       0.497122874839421
   C              0.333127986205729       0.666716493060129       0.496051289861336
   C              0.407316873674706       0.815039750846595       0.497126543987975
   C              0.333233413346798       0.777942023402912       0.496605855482010
   C              0.407245703399143       0.926005320964403       0.497231931391800
   C              0.333223057210009       0.889019057112703       0.496986634869379
   C              0.518166512749388       0.036793061888305       0.498003140410798
   C              0.444160119304970      -0.000203632317698       0.497480419323046
   C              0.518073803304056       0.147940710290407       0.498135413317385
   C              0.443930323829632       0.110802386323064       0.497862156858942
   C              0.518243386099617       0.259296942796252       0.499847146548380
   C              0.443591323170778       0.222192729946838       0.500862675593686
   C              0.519144924384676       0.370957559129595       0.505127628608135
   C              0.443679130104539       0.333878697896685       0.509029099353512
   C              0.521021896483063       0.482932756467930       0.511696496911125
   C              0.446029080352231       0.445720908487545       0.532852661243741
   C              0.518834125471029       0.592922289900079       0.506465244453418
   C              0.443833896399011       0.555019099770067       0.506572651632184
   C              0.518395089444875       0.703766333945656       0.500030873213816
   C              0.444271325365600       0.666586249677833       0.498697729788272
   C              0.518474730775096       0.814988711521675       0.498336514714580
   C              0.444388155465898       0.777922542083778       0.497463368853323
   C              0.518452954306426       0.926095285924752       0.498157282825562
   C              0.444430346546043       0.889137680569503       0.497534600760051
   C              0.629429170450284       0.036831884651463       0.498737102752899
   C              0.555383745295483      -0.000097500586286       0.498353331111010
   C              0.629456313165120       0.148066248364294       0.498372615588494
   C              0.555148836839946       0.111037325335504       0.498138629297693
   C              0.629594188924141       0.259444483142598       0.498177157841316
   C              0.555037214570355       0.222485198857121       0.498472114558977
   C              0.629959542863639       0.370835273848942       0.498769454051152
   C              0.555348545876081       0.333949230313691       0.500892670211414
   C              0.630546255907287       0.482141903617759       0.499825353167798
   C              0.556396680708295       0.445272800636195       0.505395381130975
   C              0.630495452009864       0.593038313697403       0.500628093179752
   C              0.556366970408894       0.555672235623167       0.506213756627171
   C              0.629968380231334       0.703866135284967       0.500357639923169
   C              0.555386135994402       0.666201972337251       0.502269126907403
   C              0.629760886865368       0.815060838662911       0.499354461216920
   C              0.555452741879004       0.777703674435546       0.499111311315829
   C              0.629633778824590       0.926089613745788       0.499035019240148
   C              0.555603385864425       0.889116139012653       0.498539942894435
   C              0.740765899304429       0.036869162142102       0.499228847930849
   C              0.666612927246452      -0.000107520655217       0.499055752392600
   C              0.740794019735726       0.148113033778981       0.498723493399349
   C              0.666482287617170       0.111058425351402       0.498640383752704
   C              0.740840095444191       0.259373626207952       0.498020488387092
   C              0.666508315289655       0.222367664347938       0.498156293711987
   C              0.741035322082424       0.370610736346053       0.497380040775344
   C              0.666752515537219       0.333595128251414       0.497930787438112
   C              0.741403198664967       0.481859311850074       0.496999989715521
   C              0.667206209616195       0.444798064643245       0.498061048844792
   C              0.741606942387554       0.593104165367821       0.497395168400946
   C              0.667415145820802       0.556024018764189       0.499026502086430
   C              0.741301778284277       0.704092070520658       0.497954113986723
   C              0.667172223016066       0.667011154402110       0.499363978381121
   C              0.741000146622518       0.815044735121017       0.498591675226637
   C              0.666799152903990       0.777816773001531       0.499301880329042
   C              0.740931130888392       0.926111997237800       0.499185822197544
   C              0.666715503699894       0.888979683013489       0.499214261389301
   C              0.852065499822893       0.036858024900087       0.499169147494086
   C              0.777923633443100      -0.000087040345397       0.499295228241794
   C              0.852109767537649       0.148137806000149       0.499023668555731
   C              0.777895847814923       0.111012801243193       0.499052780150453
   C              0.852112507877565       0.259335487451875       0.498165079275040
   C              0.777891729706054       0.222226133438053       0.498346507590414
   C              0.852199717891508       0.370540683772141       0.497285245836819
   C              0.777998932291540       0.333451271286456       0.497527905276950
   C              0.852400522643710       0.481771007324009       0.496981556344132
   C              0.778238253870142       0.444696460791906       0.496996871284326
   C              0.852527263385647       0.592967438576782       0.496999087874016
   C              0.778450856350219       0.555942606979959       0.496899863110328
   C              0.852464096983813       0.704044596991159       0.497334331482310
   C              0.778407095633072       0.667044803995789       0.497352867161135
   C              0.852233510878294       0.815052920062861       0.497760165733688
   C              0.778114598889698       0.778069610610563       0.498009991505228
   C              0.852019030885419       0.926071295848580       0.498440899580945
   C              0.777966039517349       0.889168427323117       0.498749431883747
   C              0.963128612494298       0.036894040215158       0.498503346023296
   C              0.889077038746927      -0.000088548758594       0.498719068027826
   C              0.963132895793039       0.148075226091735       0.499262631406687
   C              0.889301597693506       0.111088785180255       0.499183240909172
   C              0.963205749664896       0.259334966682770       0.498310318863536
   C              0.889179199008792       0.222219289708474       0.498534603265276
   C              0.963149171958804       0.370473806548505       0.497172784537247
   C              0.889159673052182       0.333399200033516       0.497576313377139
   C              0.963223726671654       0.481652177807353       0.496901568949304
   C              0.889273675837171       0.444603635731425       0.497061927262238
   C              0.963320926194011       0.592815748808375       0.497259112920158
   C              0.889407516933940       0.555803268389466       0.497055875863535
   C              0.963346621830455       0.703948981300977       0.497623987103404
   C              0.889414191678565       0.666974645761228       0.497311732081613
   C              0.963184952569104       0.814952322602737       0.497738651042778
   C              0.889279864800160       0.778057018224783       0.497623636421586
   C              0.962929488172324       0.925812463731127       0.497738656573981
   C              0.889022275378256       0.889023131034970       0.497977545447951
%ENDBLOCK positions_frac

FIX_COM : false

%BLOCK species_gamma
   radsectesla
   H          267522128.0    
%ENDBLOCK species_gamma

%BLOCK species_pot
   H       1|0.6|13|15|17|10(qc=8)
   C       1|1.2|17|20|23|20N:21L(qc=8)
%ENDBLOCK species_pot

SYMMETRY_TOL :     0.001000

%BLOCK symmetry_ops
# Symm. op. 1       E
          1.000000000000000       0.000000000000000       0.000000000000000
          0.000000000000000       1.000000000000000       0.000000000000000
          0.000000000000000       0.000000000000000       1.000000000000000
          0.000000000000000       0.000000000000000       0.000000000000000
%ENDBLOCK symmetry_ops

kpoint_mp_grid :    1   1   1

