# CELL file written 16:29:16 (GMT+1.0) 28th October 2022 from run 4x4

%BLOCK lattice_cart
   ANG
       9.88000000000000        0.00000000000000        0.00000000000000    
      -4.94000000000000        8.55633100000000        0.00000000000000    
       0.00000000000000        0.00000000000000        20.0339000000000    
%ENDBLOCK lattice_cart

%BLOCK cell_constraints
      0   0   0
      0   0   0
%ENDBLOCK cell_constraints

%BLOCK positions_frac
   H              0.473024617878258       0.371837915637898       0.584691197476462
   H              0.628793706266020       0.531714054966814       0.580226448999286
   C              0.166332648426346       0.084434758440851       0.499705704364232
   C             -0.000546702222599       0.000483832114444       0.496395488965848
   C              0.166159394219831       0.333825909208303       0.497358398593573
   C             -0.000241483345719       0.250170452014411       0.492187127380459
   C              0.166107720028175       0.583893220725600       0.494145970083605
   C             -0.000792106705811       0.499973702211049       0.494294329057642
   C              0.165806198183434       0.834478315958414       0.496215472863242
   C             -0.000658776066086       0.750875245497463       0.499219806490468
   C              0.417386944945500       0.084616004045309       0.500143243437960
   C              0.249489434521070       0.000858400126266       0.499347145284054
   C              0.417728544234799       0.336698301459134       0.513556400200262
   C              0.248604487561275       0.250727310624200       0.502903694419433
   C              0.416742056566421       0.583537969733878       0.496826884238885
   C              0.248445631662806       0.500804187402600       0.496667607607105
   C              0.416570934299993       0.834226445088574       0.494198675914040
   C              0.249317848809498       0.751049717419424       0.493971163704422
   C              0.666679461321689       0.083600368043872       0.491732796466447
   C              0.500350438543224       0.000969123427462       0.494580049472772
   C              0.667946515563350       0.332913920938642       0.502554921804032
   C              0.501485772734098       0.249602286277757       0.505592723981062
   C              0.663341364683302       0.581332878252923       0.517047375343269
   C              0.497292936315266       0.502355084418940       0.497541500008712
   C              0.666708966080516       0.833943765498655       0.497516717686589
   C              0.499617203717285       0.751991862490680       0.496798241297865
   C              0.916744702420909       0.083647980836319       0.492789827050284
   C              0.750102194833659       0.000104721895961       0.491915132084060
   C              0.916647713551992       0.333725933438296       0.491778874209919
   C              0.750531069107222       0.249759316842170       0.494027952130031
   C              0.915836463549335       0.583073853827528       0.499549725205590
   C              0.751330713543115       0.498784507370154       0.504982467762867
   C              0.915524428071205       0.833737390625726       0.499855331430142
   C              0.749618409686491       0.751558761974010       0.504141668453095
%ENDBLOCK positions_frac

FIX_COM : false

%BLOCK species_gamma
   radsectesla
   H          267522128.0    
%ENDBLOCK species_gamma

%BLOCK species_pot
   H       1|0.6|13|15|17|10(qc=8)
   C       1|1.2|17|20|23|20N:21L(qc=8)
%ENDBLOCK species_pot

SYMMETRY_TOL :     0.001000

%BLOCK symmetry_ops
# Symm. op. 1       E
          1.000000000000000       0.000000000000000       0.000000000000000
          0.000000000000000       1.000000000000000       0.000000000000000
          0.000000000000000       0.000000000000000       1.000000000000000
          0.000000000000000       0.000000000000000       0.000000000000000
%ENDBLOCK symmetry_ops

kpoint_mp_grid :    4   4   1

