# CELL file written 15:55:02 (GMT+1.0) 28th October 2022 from run 9x9

%BLOCK lattice_cart
   ANG
       22.2300000000000        0.00000000000000        0.00000000000000    
      -11.1150000000000        19.2517450000000        0.00000000000000    
       0.00000000000000        0.00000000000000        20.0340000000000    
%ENDBLOCK lattice_cart

%BLOCK cell_constraints
      0   0   0
      0   0   0
%ENDBLOCK cell_constraints

%BLOCK positions_frac
   H              0.425856124297355       0.407342422289460       0.589354420486249
   C              0.073824030483394       0.036739378364208       0.498575242021942
   C             -0.000129200991521      -0.000130417032841       0.498401192555242
   C              0.073646756936790       0.147801584683828       0.498803379345621
   C             -0.000338753629849       0.110806400574862       0.498554292910554
   C              0.073558409710853       0.258915465175591       0.499125914328786
   C             -0.000299815680270       0.221933893187898       0.498734636542768
   C              0.073675200969130       0.370206214174834       0.498824880365187
   C             -0.000336960121970       0.333103207851655       0.498587362685890
   C              0.073701749096808       0.481400857491993       0.498596962986380
   C             -0.000226576373227       0.444326842830604       0.498511210931354
   C              0.073800213066614       0.592589100282250       0.498741302702072
   C             -0.000186841305312       0.555505453294875       0.498716576018959
   C              0.073851434871120       0.703821790158626       0.498868485885847
   C             -0.000127323817097       0.666732175774345       0.498824164168648
   C              0.073911591586346       0.815033363296838       0.498849557553844
   C             -0.000100452051625       0.777913664691083       0.498748761524724
   C              0.073871376759811       0.926027348247091       0.498633242032031
   C             -0.000119911416254       0.888998808500592       0.498483597939548
   C              0.184890105877355       0.036674629544873       0.499050576571270
   C              0.110839660208638      -0.000228804080640       0.498688875509530
   C              0.184704283096530       0.147636386415145       0.499529410596940
   C              0.110663232249981       0.110736389882024       0.498834022903927
   C              0.184651548388858       0.258814643696564       0.500572768579499
   C              0.110538721075206       0.221827279267726       0.499342402152348
   C              0.184665599493500       0.370257468073545       0.500414871785551
   C              0.110627429989190       0.333104432378447       0.499318263750224
   C              0.184780432219354       0.481383939761578       0.499249301084212
   C              0.110674503365809       0.444251577112179       0.498800501659881
   C              0.184917941105272       0.592621884874929       0.498702828496339
   C              0.110733279982083       0.555477807537901       0.498667845024199
   C              0.184955027852507       0.703842661257053       0.498742496653801
   C              0.110832617978540       0.666718889571445       0.498815912410353
   C              0.185018303109279       0.815065032086556       0.498849222280539
   C              0.110890670058735       0.777949207319525       0.498898789650556
   C              0.185036179840507       0.926103254337529       0.498863326227365
   C              0.110911810077963       0.889087007756285       0.498802135781618
   C              0.296041528112857       0.036631047734910       0.499055951009504
   C              0.221948530691492      -0.000324814446608       0.499007288548320
   C              0.296086887061029       0.147858804061284       0.500757875566629
   C              0.221806050015516       0.110655125992457       0.499716286610766
   C              0.295731983100729       0.258795130823562       0.503669960439714
   C              0.221591137260747       0.221757317886030       0.500729634249750
   C              0.295589805704227       0.369909195429545       0.505641621117724
   C              0.221851824227835       0.333078842227287       0.501906978094171
   C              0.296090184120966       0.481519058435038       0.501859781331053
   C              0.221694761755677       0.444275459732760       0.500378023228861
   C              0.296063545177430       0.592789020082994       0.499224512573958
   C              0.221918782024643       0.555626210730026       0.499019385958489
   C              0.296126727540885       0.703938845708225       0.498489274510563
   C              0.222023057134490       0.666804101300909       0.498627876041868
   C              0.296207514347831       0.815093611866938       0.498536447223533
   C              0.222088434585235       0.778005131139585       0.498743376295150
   C              0.296195712717208       0.926045972405174       0.498644179441206
   C              0.222129988851508       0.889123203445313       0.498807185548173
   C              0.407185993114958       0.036570467112844       0.498586572221408
   C              0.333166797355371      -0.000297193123070       0.498700779240377
   C              0.407218357381835       0.147575735342600       0.499524330722759
   C              0.333126454852319       0.110613899186349       0.499718010628662
   C              0.407399701480979       0.258791653112313       0.503657196665596
   C              0.332999603275060       0.221668897591262       0.503244106853043
   C              0.406475209275552       0.368592244521382       0.518718619218429
   C              0.331963912684056       0.332358400528397       0.507793842487997
   C              0.406950056894860       0.482304329785776       0.507764061728475
   C              0.333012375487003       0.444719858308849       0.505622329487644
   C              0.407211738638836       0.592923531975670       0.500678552100129
   C              0.333193627878820       0.555806262903611       0.500504339629956
   C              0.407365548194790       0.704055474587478       0.498696138489129
   C              0.333211836276422       0.666897811812392       0.498682000922821
   C              0.407422029452532       0.815171104398966       0.498299934243334
   C              0.333290900686220       0.778080190741806       0.498391868533106
   C              0.407387776664696       0.926086585837335       0.498369762816803
   C              0.333334569934059       0.889165715544724       0.498494153009558
   C              0.518413539265378       0.036667293504187       0.498445405127693
   C              0.444355431515263      -0.000279078764207       0.498417937310413
   C              0.518460082277827       0.147754995640525       0.498790010427655
   C              0.444317553692486       0.110612135107727       0.498832459429714
   C              0.518490337599911       0.258846906743342       0.500543134795064
   C              0.444476988090775       0.221731126798588       0.500712125535053
   C              0.518686835101687       0.369946878199049       0.505627899192828
   C              0.444748620876355       0.332365263828474       0.507779404771659
   C              0.519748782651751       0.482323064042542       0.507779129883599
   C              0.445229941960695       0.446081009041502       0.518708953090091
   C              0.518713928591232       0.593013175205825       0.503223893625927
   C              0.444303431502344       0.555877393509406       0.503641121403546
   C              0.518575398329878       0.704060386969799       0.499602598700466
   C              0.444469436329093       0.667084426265116       0.499425651737002
   C              0.518619367917985       0.815181057909119       0.498521908664199
   C              0.444523756906036       0.778170924855750       0.498415147723958
   C              0.518599982639339       0.926124216328153       0.498412106021498
   C              0.444550957756957       0.889207873033444       0.498313140072788
   C              0.629610013028712       0.036741673419040       0.498618979159930
   C              0.555563116298630      -0.000198063557422       0.498493193879171
   C              0.629646461943069       0.147839274617604       0.498628114639388
   C              0.555547055883408       0.110728551893213       0.498554588242573
   C              0.629755590909258       0.259011310381293       0.499095704828551
   C              0.555609531836934       0.221851886467463       0.499312348981361
   C              0.629988404971277       0.370374874711360       0.500393749207194
   C              0.555592265553272       0.333134193431129       0.501879405131931
   C              0.629848892795826       0.481594447833650       0.501879300079668
   C              0.556107848394581       0.444762574406435       0.505630661776363
   C              0.630138435658362       0.592944427961595       0.500709340255180
   C              0.555987920335020       0.555891602806072       0.503660687970563
   C              0.629935725513181       0.704054154940922       0.499613906610951
   C              0.555631747556807       0.666823891761649       0.500698899983308
   C              0.629864318989456       0.815214720650723       0.498842838575193
   C              0.555691079396140       0.778112357987690       0.498883321769242
   C              0.629788716503319       0.926156031030438       0.498633931930813
   C              0.555741233736498       0.889252115790370       0.498499854325739
   C              0.740830626984444       0.036792254151741       0.498691622589913
   C              0.666748990958952      -0.000172851312131       0.498658809476509
   C              0.740872033884043       0.147924083211313       0.498701179559727
   C              0.666726823492205       0.110820722275618       0.498654685677302
   C              0.740977415097150       0.259164632018014       0.498624726066378
   C              0.666758627149690       0.222013495464090       0.498717637493079
   C              0.741033550594098       0.370396155370309       0.498810930315848
   C              0.666900995505022       0.333256861116760       0.499291422061302
   C              0.741079702317044       0.481557483800080       0.499263740934670
   C              0.667023111152615       0.444398792754191       0.500381729361261
   C              0.741196815229383       0.592877972389220       0.499261226825801
   C              0.667061625851005       0.555871145225539       0.500539057230239
   C              0.741138723042717       0.704048328775099       0.498718149570672
   C              0.667058834433506       0.667088761754808       0.499449864432987
   C              0.741046351880227       0.815149799018392       0.498517908703813
   C              0.666903443627768       0.778098029331197       0.498885515960146
   C              0.740976012689280       0.926164054589501       0.498627244594911
   C              0.666880326745854       0.889185901180995       0.498682470521413
   C              0.852027821866289       0.036827677135677       0.498613585084230
   C              0.777921835814040      -0.000141223488541       0.498654757311723
   C              0.852063638145498       0.147979292877495       0.498707329229396
   C              0.777925204382874       0.110868392660474       0.498720093168402
   C              0.852132353710503       0.259227747379768       0.498587462653886
   C              0.777976817631574       0.222078853255238       0.498638771358670
   C              0.852168543779615       0.370414808249824       0.498467069971582
   C              0.778076897295536       0.333275896031090       0.498573535090567
   C              0.852272523755595       0.481647623914043       0.498604734926120
   C              0.778097343759382       0.444478333776735       0.498804112562435
   C              0.852226716995180       0.592818081279487       0.498728927766150
   C              0.778220326295041       0.555789425492697       0.499049505054971
   C              0.852298989649776       0.703997782510207       0.498509942998386
   C              0.778174296838741       0.666957343455384       0.498712158616202
   C              0.852175953012576       0.815079134990821       0.498295724169348
   C              0.778097761621983       0.778129399015255       0.498417727175202
   C              0.852037494354732       0.926090066952088       0.498396127342880
   C              0.778031922518828       0.889223053292950       0.498488157561369
   C              0.963037028159313       0.036902108953628       0.498433817186929
   C              0.889044987705182      -0.000122277120664       0.498479744327209
   C              0.963041694089058       0.147993808206167       0.498634993700030
   C              0.889058584612826       0.110911516913384       0.498656486656621
   C              0.963065057233810       0.259204269117877       0.498642063118765
   C              0.889117733079379       0.222110334512753       0.498648599983198
   C              0.963121686263291       0.370372735615309       0.498475651748101
   C              0.889139123908034       0.333293753010414       0.498475971859513
   C              0.963174758335689       0.481606000854254       0.498570572345380
   C              0.889195445951454       0.444530468230673       0.498509484253641
   C              0.963190122698365       0.592778561734404       0.498750236580862
   C              0.889256456713519       0.555715046843987       0.498684282954955
   C              0.963230272212433       0.703964099942636       0.498755654212043
   C              0.889266119160735       0.666943313870859       0.498650351556008
   C              0.963189196631314       0.815050710874714       0.498536986213413
   C              0.889224851813170       0.778064553741240       0.498396056406369
   C              0.962998898857671       0.925981350196086       0.498353137211733
   C              0.889026720400293       0.889072719965588       0.498298059163331
%ENDBLOCK positions_frac

FIX_COM : false

%BLOCK species_gamma
   radsectesla
   H          267522128.0    
%ENDBLOCK species_gamma

%BLOCK species_pot
   H       1|0.8|14|16|19|10N(qc=8)
   C       1|1.2|17|20|23|20N:21L(qc=8)
%ENDBLOCK species_pot

SYMMETRY_TOL :     0.001000

%BLOCK symmetry_ops
# Symm. op. 1       E
          1.000000000000000       0.000000000000000       0.000000000000000
          0.000000000000000       1.000000000000000       0.000000000000000
          0.000000000000000       0.000000000000000       1.000000000000000
          0.000000000000000       0.000000000000000       0.000000000000000
%ENDBLOCK symmetry_ops

kpoint_mp_grid :    1   1   1

