# CELL file written 01:39:23 (GMT+1.0) 29th October 2022 from run 9x9

%BLOCK lattice_cart
   ANG
       22.2300000000000        0.00000000000000        0.00000000000000    
      -11.1150000000000        19.2517450000000        0.00000000000000    
       0.00000000000000        0.00000000000000        20.0340000000000    
%ENDBLOCK lattice_cart

%BLOCK cell_constraints
      0   0   0
      0   0   0
%ENDBLOCK cell_constraints

%BLOCK positions_frac
   H              0.392912414139992       0.422114871762936       0.686749292581660
   H              0.353856669054086       0.402015850356473       0.687727849183584
   C              0.073930704674039       0.036869338407433       0.499431032810961
   C             -0.000010878703311      -0.000037766076574       0.498927171911482
   C              0.073771112741848       0.147893962161867       0.500459003342363
   C             -0.000209865913432       0.110853829844672       0.499641961634339
   C              0.073711680301056       0.259037176373466       0.500796225393075
   C             -0.000291331830097       0.221965891539386       0.499806512719970
   C              0.073693162869734       0.370221764775640       0.500386640635316
   C             -0.000241061958818       0.333215370994805       0.499567251535136
   C              0.073725545705087       0.481397289880297       0.499329755803183
   C             -0.000199923010851       0.444357146309205       0.498826168137790
   C              0.073796703045686       0.592629469257187       0.498045395648803
   C             -0.000150274962349       0.555576836079799       0.498038872084001
   C              0.073847525863191       0.703838834955214       0.497217256439290
   C             -0.000094734988628       0.666762766042605       0.497444536394356
   C              0.073881790446555       0.814963442318744       0.497266848218929
   C             -0.000072920576360       0.777903918633978       0.497485476654711
   C              0.073876661038871       0.926015608211678       0.498151163564875
   C             -0.000104078085618       0.888954056244582       0.498130031171602
   C              0.184937777581980       0.036716553764502       0.499311789304101
   C              0.110912619348638      -0.000199323192976       0.498935781045909
   C              0.184888677872895       0.147850542413862       0.501096818242250
   C              0.110796052520828       0.110847092686882       0.500365544687184
   C              0.184855675481403       0.259051558470887       0.502209288929366
   C              0.110747258038599       0.221989850530273       0.501225836090829
   C              0.184838604916278       0.370234076278548       0.502168374055173
   C              0.110717517746132       0.333149498482496       0.501186666621870
   C              0.184816843561184       0.481430704534143       0.501009630906806
   C              0.110694845746508       0.444322185882140       0.500277240858350
   C              0.184886862437735       0.592642851602264       0.499228014966340
   C              0.110783059367973       0.555533617456252       0.498834927539393
   C              0.184939269997314       0.703841580908096       0.497593728906144
   C              0.110826515127902       0.666737791338703       0.497523515284480
   C              0.184993443895136       0.815016199770659       0.497065420732015
   C              0.110879463594542       0.777921416332857       0.497042146625323
   C              0.184986447190163       0.925999534573546       0.497651660253566
   C              0.110918832628764       0.889055503451851       0.497603877769100
   C              0.296017495185476       0.036662047475684       0.498707060727366
   C              0.221959285333937      -0.000292787877450       0.498522158467336
   C              0.296052079197228       0.147792033918196       0.500856455014557
   C              0.221971857742185       0.110804304343315       0.500502453030388
   C              0.296070804149178       0.259074858183761       0.502706134776469
   C              0.221984234800027       0.221996074566364       0.502126252474538
   C              0.296078737173634       0.370275871346186       0.503515708161463
   C              0.221919740269120       0.333185780589752       0.502824663246770
   C              0.296055432294146       0.481472524807131       0.502637438487422
   C              0.221946915989974       0.444420842390376       0.502051168722627
   C              0.296089721911147       0.592703040836384       0.500781255785681
   C              0.221947120385121       0.555574422131062       0.500417649768912
   C              0.296139467467746       0.703913188721494       0.498638728109147
   C              0.221984009698211       0.666782137865852       0.498447276780550
   C              0.296193064078668       0.815068520068266       0.497269426889177
   C              0.222040601229117       0.777980583541171       0.497198403516566
   C              0.296158678522649       0.926023789160113       0.497287763744537
   C              0.222075020861124       0.889077333461128       0.497222535643001
   C              0.407135675476311       0.036681851703776       0.497946331809752
   C              0.333097190752028      -0.000247272076358       0.497917403701194
   C              0.407192028526021       0.147764354848150       0.499898810517835
   C              0.333087910104520       0.110708264327308       0.499879142588324
   C              0.407296565812942       0.259069582022127       0.502023780370627
   C              0.333093419741985       0.221960179511353       0.502002323663362
   C              0.407286545743174       0.370302450962792       0.503520834812705
   C              0.333167826389917       0.333217955834420       0.503490000460152
   C              0.407280814231418       0.481473905888685       0.503476798997001
   C              0.333151474254976       0.444409693322484       0.503440908851707
   C              0.407324813864069       0.592727195663130       0.501957889239196
   C              0.333120701121854       0.555592984404308       0.501928372088947
   C              0.407331639281748       0.703944691654145       0.499841831466936
   C              0.333199424483315       0.666873619574567       0.499808641581226
   C              0.407345497225601       0.815063388897387       0.497912004733793
   C              0.333236162734811       0.778009599368123       0.497871137483036
   C              0.407336080087940       0.926046931522769       0.497180653879147
   C              0.333278229481024       0.889132047052626       0.497148533643841
   C              0.518361109759492       0.036718668205163       0.497315364426769
   C              0.444257107984764      -0.000234107058945       0.497353821143945
   C              0.518396658329579       0.147826515288559       0.498607521881910
   C              0.444219322871729       0.110720246160578       0.498749871456762
   C              0.518463005974549       0.259065139469984       0.500565413036836
   C              0.444305106997586       0.221944964588395       0.500890017696435
   C              0.518495791379873       0.370256919367398       0.502228250054217
   C              0.444360122892322       0.333213260267460       0.502765229500905
   C              0.518539239892391       0.481518383571866       0.502966912577103
   C              0.444377678927295       0.444427687698405       0.503589930783445
   C              0.518502443551141       0.592728152363311       0.502201451133096
   C              0.444383122110097       0.555631229313967       0.502710753453233
   C              0.518548133034552       0.703926505836045       0.500555870167405
   C              0.444410473603078       0.666885605315690       0.500847706149963
   C              0.518583601410234       0.815139798248046       0.498612482751894
   C              0.444424511756101       0.778058059528800       0.498719473659199
   C              0.518552778997310       0.926106562956146       0.497313574258664
   C              0.444455629053609       0.889162274442717       0.497340617028265
   C              0.629564447799372       0.036764402295825       0.497135158218364
   C              0.555459913540373      -0.000196211169980       0.497166923720996
   C              0.629586901414168       0.147865305316843       0.497674525606240
   C              0.555435966145945       0.110789025163136       0.497742263977870
   C              0.629685335584787       0.259102191900380       0.499021292796097
   C              0.555508963643989       0.221981398892770       0.499389226191791
   C              0.629758174773145       0.370334967955597       0.500459124713196
   C              0.555588444246081       0.333217750292699       0.501182425922027
   C              0.629778270610350       0.481531822159123       0.501385925209166
   C              0.555636999508832       0.444468659281264       0.502346632804898
   C              0.629773135433064       0.592742951598012       0.501379297879834
   C              0.555630660106221       0.555655851678315       0.502336192935065
   C              0.629793552270755       0.703959514403754       0.500476850420635
   C              0.555644472695424       0.666877967570669       0.501177642604454
   C              0.629798719615462       0.815154641340195       0.499060035615238
   C              0.555646731965342       0.778095682012457       0.499402705289836
   C              0.629749629834244       0.926143565198476       0.497703771410937
   C              0.555657771071999       0.889187598279750       0.497759077636148
   C              0.740789746896466       0.036815860360742       0.497548081797124
   C              0.666705761863544      -0.000125590431143       0.497337295484857
   C              0.740822971281058       0.147928057049637       0.497532869111921
   C              0.666656898656864       0.110827819805191       0.497332496954377
   C              0.740897865919922       0.259160751059009       0.498173167767755
   C              0.666710382303741       0.222013024207526       0.498231239864804
   C              0.740963467685039       0.370399846792496       0.498980028348915
   C              0.666802736367613       0.333286967873906       0.499511012183839
   C              0.741016101533415       0.481574903331112       0.499732279980970
   C              0.666852426439812       0.444479542652561       0.500591908838897
   C              0.741049312809440       0.592777967374649       0.499955516207491
   C              0.666814270864679       0.555652250472536       0.500970615260096
   C              0.740979361044546       0.703933138364661       0.499760802786746
   C              0.666850253363220       0.666885679192775       0.500594973544738
   C              0.740956291555362       0.815090276997278       0.499036961899842
   C              0.666854319068856       0.778065047925674       0.499551956478126
   C              0.740913601924909       0.926148626523301       0.498231671475266
   C              0.666847241699071       0.889215462639643       0.498270986382551
   C              0.852019035469602       0.036846265475676       0.498339883188127
   C              0.777924092743202      -0.000112293417485       0.497937209973228
   C              0.852032540993967       0.148004401176865       0.498210586933012
   C              0.777868298426541       0.110869159560084       0.497604285873290
   C              0.852107275595902       0.259218397541200       0.498276070393381
   C              0.777949453438886       0.222110001361711       0.497891816037989
   C              0.852149772385300       0.370459996558647       0.498387551903883
   C              0.778005020034652       0.333323480137800       0.498471974903399
   C              0.852211579589994       0.481665407001985       0.498548540134047
   C              0.778046961935828       0.444521385738312       0.499052229051287
   C              0.852239442042332       0.592835451618632       0.498578327906726
   C              0.778112732846235       0.555702326821498       0.499432945753158
   C              0.852205983960781       0.703941100206576       0.498598125620923
   C              0.778085457415463       0.666913555369526       0.499452626329207
   C              0.852129021628665       0.815031629018104       0.498616935150792
   C              0.777996506158443       0.778017917975732       0.499099117880604
   C              0.852039616972777       0.926067413595546       0.498475379168300
   C              0.777987002438876       0.889181423703588       0.498546756855696
   C              0.963079437706014       0.036923868863812       0.499028729569492
   C              0.889063610547519      -0.000117029899141       0.498607713164638
   C              0.963033417211333       0.148012485427213       0.499356008402025
   C              0.889031905805722       0.110918322265628       0.498575777596809
   C              0.963044266024100       0.259227447262439       0.499319330804066
   C              0.889061666922590       0.222110089263274       0.498532243523753
   C              0.963111220004991       0.370440617015734       0.498924488060508
   C              0.889124034222993       0.333364825078647       0.498510285692129
   C              0.963158181762854       0.481635817963314       0.498356201566344
   C              0.889177384359977       0.444561621623256       0.498363371852642
   C              0.963201388580252       0.592800538965571       0.497810876191556
   C              0.889252266452024       0.555770711845931       0.498265157286495
   C              0.963231279656101       0.703973986448413       0.497546171309663
   C              0.889274346020151       0.666929527828271       0.498216627220041
   C              0.963157867672124       0.815028621226950       0.497875472693779
   C              0.889206449170485       0.778010902613788       0.498323913089448
   C              0.962988224840277       0.925962384724485       0.498459391636259
   C              0.889019205564544       0.889039832633688       0.498453071325531
%ENDBLOCK positions_frac

FIX_COM : false

%BLOCK species_gamma
   radsectesla
   H          267522128.0    
%ENDBLOCK species_gamma

%BLOCK species_pot
   H       1|0.6|13|15|17|10(qc=8)
   C       1|1.2|17|20|23|20N:21L(qc=8)
%ENDBLOCK species_pot

SYMMETRY_TOL :     0.001000

%BLOCK symmetry_ops
# Symm. op. 1       E
          1.000000000000000       0.000000000000000       0.000000000000000
          0.000000000000000       1.000000000000000       0.000000000000000
          0.000000000000000       0.000000000000000       1.000000000000000
          0.000000000000000       0.000000000000000       0.000000000000000
%ENDBLOCK symmetry_ops

kpoint_mp_grid :    1   1   1

