# CELL file written 22:06:34 (GMT+0.0) 30th October 2022 from run 4x4

%BLOCK lattice_cart
   ANG
       9.88000000000000        0.00000000000000        0.00000000000000    
      -4.94000000000000        8.55633100000000        0.00000000000000    
       0.00000000000000        0.00000000000000        20.0339000000000    
%ENDBLOCK lattice_cart

%BLOCK cell_constraints
      0   0   0
      0   0   0
%ENDBLOCK cell_constraints

%BLOCK positions_frac
   H              0.543437828108808       0.335929759490747       0.581164973834084
   H              0.624213473670264       0.497886601210390       0.581127859659856
   C              0.165627788935989       0.083152761687219       0.498605153157817
   C             -0.000166448673182      -0.000296517801332       0.496318897345301
   C              0.165974841277844       0.333610290367624       0.493374732465505
   C             -0.000168573080672       0.249805455538415       0.491965809307172
   C              0.166954319756503       0.584283788858427       0.492018356035336
   C              0.000813537222074       0.500467511484115       0.493295049281006
   C              0.167076632904566       0.834483345052052       0.496415345767457
   C              0.001251682713500       0.750976801557290       0.498477787846122
   C              0.417337736083220       0.084682093554720       0.507665009736613
   C              0.251834172888404       0.001776637056891       0.501103953937587
   C              0.414159599593028       0.335966128899965       0.501697728817219
   C              0.248615869753244       0.249975831544131       0.497868560819244
   C              0.415742721488046       0.584155244823320       0.497695066289828
   C              0.249450975316671       0.500510811308391       0.493360109648518
   C              0.417196838466899       0.834565015343262       0.496383674774278
   C              0.250389198816081       0.751138727083045       0.494058581174610
   C              0.667548505206712       0.083123590585756       0.498484828132909
   C              0.500054261091778       0.001742093275826       0.501038505067357
   C              0.672006658131951       0.335993332500804       0.501525805909280
   C              0.503856958311678       0.257437607688177       0.517778773406270
   C              0.663554798465923       0.576850452565407       0.517485378767481
   C              0.495324682480784       0.498227183865015       0.501536793867883
   C              0.667189319770235       0.832484112612833       0.500877054263823
   C              0.499723679160051       0.751130296178351       0.498441377526895
   C              0.916702781122378       0.083130078956891       0.493945707520046
   C              0.750040384293256      -0.000319029597767       0.496285903897604
   C              0.917639856311066       0.333710444827015       0.493279400367771
   C              0.751523902273648       0.250077650181359       0.497698043281046
   C              0.918510349861747       0.584236235889004       0.497650329384790
   C              0.753140637928224       0.498269573108867       0.501471263019659
   C              0.915253588803851       0.832398998501257       0.500887276971205
   C              0.749916419686477       0.749511958632719       0.507373159663778
%ENDBLOCK positions_frac

FIX_COM : false

%BLOCK species_gamma
   radsectesla
   H          267522128.0    
%ENDBLOCK species_gamma

%BLOCK species_pot
   H       1|0.6|13|15|17|10(qc=8)
   C       1|1.2|17|20|23|20N:21L(qc=8)
%ENDBLOCK species_pot

SYMMETRY_TOL :     0.001000

%BLOCK symmetry_ops
# Symm. op. 1       E
          1.000000000000000       0.000000000000000       0.000000000000000
          0.000000000000000       1.000000000000000       0.000000000000000
          0.000000000000000       0.000000000000000       1.000000000000000
          0.000000000000000       0.000000000000000       0.000000000000000
%ENDBLOCK symmetry_ops

kpoint_mp_grid :    4   4   1

