# CELL file written 15:24:42 (GMT+0.0) 30th October 2022 from run 4x4

%BLOCK lattice_cart
   ANG
       9.88000000000000        0.00000000000000        0.00000000000000    
      -4.94000000000000        8.55633100000000        0.00000000000000    
       0.00000000000000        0.00000000000000        20.0339000000000    
%ENDBLOCK lattice_cart

%BLOCK cell_constraints
      0   0   0
      0   0   0
%ENDBLOCK cell_constraints

%BLOCK positions_frac
   H              0.571352555842599       0.386730129472000       0.670325872660292
   H              0.615214120097785       0.473782711407783       0.675117440617817
   C              0.166521857477320       0.083348149720750       0.497814313186374
   C             -0.000054368295437       0.000044138807413       0.497777888058808
   C              0.166501504113182       0.333458015818453       0.497817413209367
   C             -0.000113263513899       0.250017104046924       0.497774049193826
   C              0.166544504304618       0.583632652535105       0.497749913620692
   C             -0.000091177274772       0.500163181926551       0.497829233031959
   C              0.166594123617177       0.833659215961763       0.497792635438704
   C             -0.000034731528164       0.750259756909290       0.497807705811106
   C              0.416623536835144       0.083313673345712       0.497825576361648
   C              0.249915919444118       0.000031017443426       0.497800616054991
   C              0.416645426780066       0.333482020928814       0.497944057297417
   C              0.249886727496107       0.250026871545208       0.497840431086525
   C              0.416706506135796       0.583690310125374       0.497861606701348
   C              0.249924593790638       0.500174390588606       0.497823401272608
   C              0.416683749894404       0.833703677919248       0.497798092529639
   C              0.249956544072107       0.750312114914129       0.497770535678120
   C              0.666843256023938       0.083431518247988       0.497817646793349
   C              0.500104475423118       0.000059392817295       0.497796115041805
   C              0.666847803751565       0.333544689710925       0.497929371579227
   C              0.500040791723420       0.250046892637093       0.497973908811517
   C              0.666877680196803       0.583699897517102       0.497941377391889
   C              0.500094387340328       0.500225044846551       0.497918114312549
   C              0.666867308698684       0.833735891208209       0.497806148464753
   C              0.500148968060518       0.750380298996190       0.497806613235024
   C              0.916802734522302       0.083468839418811       0.497759040289603
   C              0.750219326890855       0.000075016454668       0.497781196278368
   C              0.916847621805177       0.333612359500284       0.497815018105508
   C              0.750201079566164       0.250123637150163       0.497837595919567
   C              0.916884675936580       0.583725162049338       0.497879636100047
   C              0.750215472856121       0.500263772368116       0.497922474258224
   C              0.916842586065044       0.833683843230245       0.497801465395719
   C              0.750220816900080       0.750342535270726       0.497882620895955
%ENDBLOCK positions_frac

FIX_COM : false

%BLOCK species_gamma
   radsectesla
   H          267522128.0    
%ENDBLOCK species_gamma

%BLOCK species_pot
   H       1|0.6|13|15|17|10(qc=8)
   C       1|1.2|17|20|23|20N:21L(qc=8)
%ENDBLOCK species_pot

SYMMETRY_TOL :     0.001000

%BLOCK symmetry_ops
# Symm. op. 1       E
          1.000000000000000       0.000000000000000       0.000000000000000
          0.000000000000000       1.000000000000000       0.000000000000000
          0.000000000000000       0.000000000000000       1.000000000000000
          0.000000000000000       0.000000000000000       0.000000000000000
%ENDBLOCK symmetry_ops

kpoint_mp_grid :    4   4   1

