# CELL file written 20:33:08 (GMT+1.0) 28th October 2022 from run 9x9

%BLOCK lattice_cart
   ANG
       22.2300000000000        0.00000000000000        0.00000000000000    
      -11.1150000000000        19.2517450000000        0.00000000000000    
       0.00000000000000        0.00000000000000        20.0340000000000    
%ENDBLOCK lattice_cart

%BLOCK cell_constraints
      0   0   0
      0   0   0
%ENDBLOCK cell_constraints

%BLOCK positions_frac
   H              0.433219164982637       0.422362756538499       0.709384422208193
   H              0.415045156048606       0.383556091397672       0.705648991101169
   C              0.073888485077340       0.036856326763282       0.499590723034120
   C             -0.000072734012801      -0.000075728107304       0.499706450939524
   C              0.073738840001514       0.147892275175339       0.499418048243459
   C             -0.000240344205444       0.110869900238261       0.499501697691156
   C              0.073675345508043       0.258996184471271       0.499243816322311
   C             -0.000296546890881       0.221945065405668       0.499268783540325
   C              0.073683877651420       0.370163913300533       0.499056973844289
   C             -0.000280081916349       0.333114911739055       0.499042031893122
   C              0.073720981359900       0.481363869125715       0.499032109486889
   C             -0.000240201502435       0.444314368202313       0.498979776029793
   C              0.073770100273734       0.592580521557372       0.499160847681801
   C             -0.000192591263921       0.555523781689651       0.499092644165775
   C              0.073816343907639       0.703795922662934       0.499431052645508
   C             -0.000149584517911       0.666724199971169       0.499369005111292
   C              0.073851843119756       0.814990256477712       0.499597660155568
   C             -0.000133612351827       0.777885768194328       0.499585009597184
   C              0.073841988301584       0.926017668867399       0.499675027011263
   C             -0.000158974782012       0.888969214380899       0.499742180901416
   C              0.184906939453714       0.036719319333695       0.499530751187342
   C              0.110885973870596      -0.000178743292865       0.499613083552318
   C              0.184898860270252       0.147880294312643       0.499334357129147
   C              0.110809168950773       0.110878321320211       0.499438895317983
   C              0.184840812716334       0.259027441148450       0.499225585649389
   C              0.110718556829280       0.221962036740329       0.499304117169175
   C              0.184815871992271       0.370187908303260       0.499141670345021
   C              0.110687891518570       0.333093430538854       0.499139715789712
   C              0.184832337411872       0.481380858263290       0.499142794682867
   C              0.110705202010470       0.444274111047227       0.499055145261193
   C              0.184874775605751       0.592596408121086       0.499236366592359
   C              0.110746913453739       0.555483779376249       0.499123820537609
   C              0.184928870452238       0.703818376989934       0.499378768521729
   C              0.110798920677417       0.666705306741432       0.499321204516209
   C              0.184980879193951       0.815017959017482       0.499546695653721
   C              0.110848309463047       0.777921463763801       0.499546539795240
   C              0.184960684012564       0.926009812983955       0.499595365530123
   C              0.110882020841763       0.889058010809556       0.499628967341683
   C              0.296009750151584       0.036675707469851       0.499485639830305
   C              0.221952903327198      -0.000253730942114       0.499555037907616
   C              0.296044294203153       0.147831153884372       0.499312929326615
   C              0.221928118865035       0.110787305146093       0.499393456980125
   C              0.296068341583749       0.259050396821326       0.499185428525819
   C              0.221934318258042       0.221988983851793       0.499230599129530
   C              0.296054567161378       0.370238044224679       0.499150808732990
   C              0.221903877202431       0.333152248916985       0.499163538603758
   C              0.296054658894516       0.481427425759002       0.499185764806072
   C              0.221899154649005       0.444329593886257       0.499148603285641
   C              0.296083361047982       0.592640071392207       0.499310578288693
   C              0.221926570774489       0.555531765465862       0.499237980180803
   C              0.296134000412167       0.703861555921350       0.499439024104183
   C              0.221975200976070       0.666749682384042       0.499346279716824
   C              0.296189208062958       0.815059900295840       0.499555001098653
   C              0.222034306034591       0.777966620906963       0.499488532759009
   C              0.296156312579675       0.926030035017979       0.499579816795805
   C              0.222069622908996       0.889090778372674       0.499577960466237
   C              0.407177749319528       0.036683678812856       0.499488378563534
   C              0.333108439102007      -0.000247075140269       0.499525434341745
   C              0.407211401130388       0.147814642851794       0.499289700789319
   C              0.333076935897573       0.110744766258610       0.499359714592594
   C              0.407263716456234       0.259042299411902       0.499183078087457
   C              0.333120722666001       0.221967594972301       0.499210702793087
   C              0.407282666834945       0.370258948038402       0.499174544664579
   C              0.333135121758618       0.333181951361583       0.499162087402621
   C              0.407284474213447       0.481458210364774       0.499203805027277
   C              0.333130446653545       0.444372406970942       0.499167131332158
   C              0.407304584311362       0.592672240193020       0.499289187137677
   C              0.333146743167652       0.555576638670729       0.499258128860337
   C              0.407347373477678       0.703895645079403       0.499441690999562
   C              0.333189139847212       0.666793093851517       0.499400057567368
   C              0.407401996998068       0.815094223974316       0.499615367077551
   C              0.333248167852115       0.778007267696873       0.499546259779651
   C              0.407365005689154       0.926064002497470       0.499649431516828
   C              0.333279977122871       0.889124791598860       0.499610496457958
   C              0.518374027331030       0.036709833714415       0.499538812072294
   C              0.444296830887434      -0.000225008485584       0.499580358966141
   C              0.518406701595650       0.147830402290981       0.499362587951909
   C              0.444260426297734       0.110750006893050       0.499367794868309
   C              0.518462823498488       0.259048302571835       0.499227177400491
   C              0.444311086892892       0.221957691458680       0.499215470919801
   C              0.518498315038129       0.370268582773506       0.499183577457371
   C              0.444346139943333       0.333183876167594       0.499173507357488
   C              0.518507570150393       0.481473636746373       0.499236747535092
   C              0.444356242805842       0.444393886364440       0.499201703917791
   C              0.518517907244281       0.592684236387757       0.499328138683091
   C              0.444367546139717       0.555601773944089       0.499261825335083
   C              0.518553048604617       0.703912043989743       0.499488152399237
   C              0.444401771620552       0.666819762243746       0.499389443926659
   C              0.518604286584079       0.815118597572306       0.499624812798689
   C              0.444456804779562       0.778038131862110       0.499562204815531
   C              0.518566326373033       0.926093772498347       0.499656905370238
   C              0.444488302470132       0.889156520134794       0.499670749745069
   C              0.629582791309394       0.036745280914491       0.499531840396997
   C              0.555500479257915      -0.000193460750403       0.499582534209481
   C              0.629616342184315       0.147863914940705       0.499356055750110
   C              0.555463361445419       0.110776686011575       0.499426376835500
   C              0.629675465178385       0.259077776118856       0.499246587469572
   C              0.555515846455266       0.221972911164592       0.499289384219653
   C              0.629716876022588       0.370295057207655       0.499191305263964
   C              0.555559143444869       0.333197746931192       0.499195163291465
   C              0.629730387168036       0.481495466379837       0.499264361709164
   C              0.555579561076241       0.444409724775480       0.499218972358996
   C              0.629728802311032       0.592688970464799       0.499368749531596
   C              0.555582398333031       0.555612218750535       0.499302617705386
   C              0.629745327877801       0.703905747743747       0.499533127436441
   C              0.555600777417054       0.666827899468534       0.499450526829879
   C              0.629787520706416       0.815125596715794       0.499676493469946
   C              0.555652610748077       0.778054330733087       0.499609256896293
   C              0.629756492989789       0.926117653965357       0.499669309039942
   C              0.555685910258971       0.889184634856234       0.499663333031879
   C              0.740791208410708       0.036782064296294       0.499611538926245
   C              0.666707259539605      -0.000157603348433       0.499617284415203
   C              0.740828221061018       0.147906604077302       0.499359784172346
   C              0.666672081625884       0.110812110824263       0.499409184883950
   C              0.740888225092723       0.259124980266798       0.499151645853639
   C              0.666725204034196       0.222007472877954       0.499251553575211
   C              0.740935482156930       0.370344947670697       0.499100520888400
   C              0.666779724100613       0.333231208628617       0.499175534663284
   C              0.740963413717571       0.481545337772186       0.499226426744479
   C              0.666809980224823       0.444443490411537       0.499223147802194
   C              0.740960655695980       0.592723882741879       0.499425670431114
   C              0.666810910766120       0.555637140126668       0.499355420079296
   C              0.740929263941006       0.703886948541655       0.499559509580652
   C              0.666795153786268       0.666821971519065       0.499473920926470
   C              0.740933869904804       0.815086652348766       0.499717295015755
   C              0.666817372813422       0.778039414051530       0.499655437163260
   C              0.740907255092975       0.926125853761810       0.499718219639069
   C              0.666853050488611       0.889196444029674       0.499700808896108
   C              0.851981172146498       0.036821366864218       0.499608045066481
   C              0.777902630083790      -0.000130892679109       0.499662183653280
   C              0.852012815996862       0.147958011475869       0.499384226807048
   C              0.777881381958771       0.110858678415999       0.499475480835578
   C              0.852062833255391       0.259173914687187       0.499107031975422
   C              0.777932038893584       0.222056046462299       0.499190521148360
   C              0.852114805349815       0.370395408459234       0.499002258722597
   C              0.777987850994248       0.333278418338528       0.499065054731377
   C              0.852157417552750       0.481606015706621       0.499087873204312
   C              0.778028552394777       0.444492633130692       0.499119502086427
   C              0.852174188776337       0.592785730261128       0.499338016648171
   C              0.778047570606218       0.555688117077999       0.499342818346464
   C              0.852143755142321       0.703915549513653       0.499577165553855
   C              0.778021691739077       0.666847481597833       0.499529487521970
   C              0.852053010861342       0.815002444281605       0.499767476784168
   C              0.777964263639788       0.777995381465642       0.499688516077561
   C              0.851976998413754       0.926059852864689       0.499785201365855
   C              0.777956394865427       0.889157144626409       0.499758352673217
   C              0.963021724424162       0.036911563783341       0.499649582414889
   C              0.889019602066136      -0.000138237272672       0.499694254375440
   C              0.962995788809966       0.147996416388216       0.499409059930894
   C              0.889011723730054       0.110889134450364       0.499464839623486
   C              0.963012361534260       0.259159245696765       0.499153024848430
   C              0.889045087972773       0.222081003249261       0.499199786779796
   C              0.963054586486144       0.370357284447940       0.498984738491936
   C              0.889092578947521       0.333299466288908       0.499003111877360
   C              0.963101832775625       0.481566671374135       0.498998731142985
   C              0.889141846964940       0.444514800802793       0.499006188775863
   C              0.963142117978725       0.592765510290244       0.499202956151469
   C              0.889178496937767       0.555715523124043       0.499194204957675
   C              0.963158560486710       0.703933271952871       0.499470924619936
   C              0.889186086574076       0.666883853027325       0.499463211504854
   C              0.963102990664775       0.815012541762788       0.499688549184151
   C              0.889124043906561       0.777987810839894       0.499696290430489
   C              0.962935721116939       0.925958561432655       0.499795714141151
   C              0.888973277779953       0.889021257709607       0.499822773506371
%ENDBLOCK positions_frac

FIX_COM : false

%BLOCK species_gamma
   radsectesla
   H          267522128.0    
%ENDBLOCK species_gamma

%BLOCK species_pot
   H       1|0.6|13|15|17|10(qc=8)
   C       1|1.2|17|20|23|20N:21L(qc=8)
%ENDBLOCK species_pot

SYMMETRY_TOL :     0.001000

%BLOCK symmetry_ops
# Symm. op. 1       E
          1.000000000000000       0.000000000000000       0.000000000000000
          0.000000000000000       1.000000000000000       0.000000000000000
          0.000000000000000       0.000000000000000       1.000000000000000
          0.000000000000000       0.000000000000000       0.000000000000000
%ENDBLOCK symmetry_ops

kpoint_mp_grid :    1   1   1

