# CELL file written 19:46:29 (GMT+1.0) 27th October 2022 from run 4x4

%BLOCK lattice_cart
   ANG
       9.88000000000000        0.00000000000000        0.00000000000000    
      -4.94000000000000        8.55633100000000        0.00000000000000    
       0.00000000000000        0.00000000000000        20.0339000000000    
%ENDBLOCK lattice_cart

%BLOCK cell_constraints
      0   0   0
      0   0   0
%ENDBLOCK cell_constraints

%BLOCK positions_frac
   H              0.538209452356998       0.423702229479439       0.675301900763735
   H              0.608666842131323       0.504024703870619       0.673045781263737
   C              0.166294254929181       0.083460079760291       0.498069136386066
   C             -0.000217385510966       0.000249294239981       0.497991793788634
   C              0.166319108268603       0.333597213929364       0.497979838462683
   C             -0.000342940987988       0.250120137430736       0.497901010430342
   C              0.166352526366801       0.583858920019714       0.497513401776422
   C             -0.000340780396784       0.500256772098546       0.497782464085045
   C              0.166318980178765       0.833798112399757       0.497856739539493
   C             -0.000223399841737       0.750432826909474       0.498181575819827
   C              0.416386473772940       0.083450988610878       0.497903488978369
   C              0.249730083161330       0.000159964600037       0.498082932343337
   C              0.416480244767456       0.333710229805092       0.498153004707846
   C              0.249702890901466       0.250138936139449       0.498032358392854
   C              0.416476882973488       0.583842358774583       0.498263206206465
   C              0.249669663085756       0.500306730443051       0.497888392583646
   C              0.416455381788607       0.833800079068794       0.497527508223449
   C              0.249770924211050       0.750522454821696       0.497434125991190
   C              0.666560015545081       0.083529710345105       0.497970167934800
   C              0.499894754154203       0.000221052650093       0.497748809919983
   C              0.666620238671358       0.333724939476643       0.498135784322638
   C              0.499884982035025       0.250223757439578       0.498021886083947
   C              0.666685942521905       0.583934289633423       0.498253619152810
   C              0.499920772958580       0.500419980098013       0.498318935861898
   C              0.666645780047434       0.833835167728041       0.497864970374902
   C              0.499931943649160       0.750521400935364       0.497858204331799
   C              0.916588266499935       0.083576860433145       0.497748265761471
   C              0.750024052212155       0.000308279920348       0.497796541283340
   C              0.916626650681706       0.333716590972530       0.498060113441957
   C              0.749973960763132       0.250221517023287       0.498294104116122
   C              0.916657231653601       0.583937715634401       0.497964832117319
   C              0.750020924243027       0.500406978883814       0.498187865978737
   C              0.916644630332605       0.833860164510421       0.498117683940437
   C              0.750106047246826       0.750563287069667       0.498164993317889
%ENDBLOCK positions_frac

FIX_COM : false

%BLOCK species_gamma
   radsectesla
   H          267522128.0    
%ENDBLOCK species_gamma

%BLOCK species_pot
   H       1|0.6|13|15|17|10(qc=8)
   C       1|1.2|17|20|23|20N:21L(qc=8)
%ENDBLOCK species_pot

SYMMETRY_TOL :     0.001000

%BLOCK symmetry_ops
# Symm. op. 1       E
          1.000000000000000       0.000000000000000       0.000000000000000
          0.000000000000000       1.000000000000000       0.000000000000000
          0.000000000000000       0.000000000000000       1.000000000000000
          0.000000000000000       0.000000000000000       0.000000000000000
%ENDBLOCK symmetry_ops

kpoint_mp_grid :    4   4   1

