# CELL file written 13:31:26 (GMT+1.0) 27th October 2022 from run 4x4

%BLOCK lattice_cart
   ANG
       9.88000000000000        0.00000000000000        0.00000000000000    
      -4.94000000000000        8.55633100000000        0.00000000000000    
       0.00000000000000        0.00000000000000        20.0339000000000    
%ENDBLOCK lattice_cart

%BLOCK cell_constraints
      0   0   0
      0   0   0
%ENDBLOCK cell_constraints

%BLOCK positions_frac
   H              0.499903893756728       0.500155588493193       0.578371463993429
   C              0.166277443531542       0.082710485154225       0.496041575484290
   C             -0.000289861785362      -0.000068890626791       0.496045449258977
   C              0.165975049868438       0.333100787463059       0.500752198779126
   C              0.000389268848776       0.250226918881810       0.498630583305051
   C              0.166296708611331       0.583851046404020       0.496024437719305
   C             -0.000318817834157       0.499960869311124       0.496034225555360
   C              0.166361696977579       0.833459601460745       0.494282173779280
   C             -0.000028245289785       0.750243152343731       0.494986746230515
   C              0.416025185210873       0.082675531743269       0.496034148655524
   C              0.249584622912204      -0.000368232459173       0.494986415337349
   C              0.414476486949917       0.329302405213644       0.504471428667205
   C              0.250091862097550       0.249197777600868       0.500243728391309
   C              0.414515888031942       0.585473364520818       0.504450524528696
   C              0.250115382533451       0.501162998379657       0.500226318337597
   C              0.416085086411436       0.833551435274117       0.496013502797825
   C              0.249623289115673       0.750308696056622       0.494971514931160
   C              0.666169876620526       0.082974851791355       0.497842859970397
   C              0.499891023905218      -0.000099533535368       0.496024689298592
   C              0.666833144393445       0.333163709277552       0.500735166041220
   C              0.498741756576126       0.249201945191496       0.500235608709019
   C              0.670672731493011       0.585497456577795       0.504452012647800
   C              0.499894936432699       0.500107846100366       0.522099599513667
   C              0.666810880064039       0.833855620448870       0.500735292873492
   C              0.498806489855908       0.749819782615152       0.500213731765410
   C              0.916820038311553       0.083058007292423       0.497872781708781
   C              0.749614135654347      -0.000802554229294       0.498616825441997
   C              0.916866770821987       0.333817508769243       0.497852157120633
   C              0.749628054634973       0.250301068381346       0.498603355006253
   C              0.917152786414947       0.583937188889323       0.496029540200278
   C              0.750734423573336       0.501228984678257       0.500225101607361
   C              0.917074241401003       0.833558367230977       0.496030388967645
   C              0.750698759413281       0.749804505873102       0.500223636210553
%ENDBLOCK positions_frac

FIX_COM : false

%BLOCK species_gamma
   radsectesla
   H          267522128.0    
%ENDBLOCK species_gamma

%BLOCK species_pot
   H       1|0.6|13|15|17|10(qc=8)
   C       1|1.2|17|20|23|20N:21L(qc=8)
%ENDBLOCK species_pot

SYMMETRY_TOL :     0.001000

%BLOCK symmetry_ops
# Symm. op. 1       E
          1.000000000000000       0.000000000000000       0.000000000000000
          0.000000000000000       1.000000000000000       0.000000000000000
          0.000000000000000       0.000000000000000       1.000000000000000
          0.000000000000000       0.000000000000000       0.000000000000000
%ENDBLOCK symmetry_ops

kpoint_mp_grid :    4   4   1

