# CELL file written 11:53:04 (GMT+0.0) 30th October 2022 from run 4x4

%BLOCK lattice_cart
   ANG
       9.88000000000000        0.00000000000000        0.00000000000000    
      -4.94000000000000        8.55633100000000        0.00000000000000    
       0.00000000000000        0.00000000000000        20.0339000000000    
%ENDBLOCK lattice_cart

%BLOCK cell_constraints
      0   0   0
      0   0   0
%ENDBLOCK cell_constraints

%BLOCK positions_frac
   H              0.498634443513410       0.246798813884636       0.578151916838699
   H              0.668851026183239       0.587175325336883       0.578123526863083
   C              0.166588677148483       0.083704554444881       0.496900039806232
   C              0.000984052060848       0.001366476556261       0.494731599716044
   C              0.166611047538865       0.333544372803009       0.491396895581941
   C              0.000016099251806       0.250232615048068       0.490661601259953
   C              0.166559812735899       0.583541818184998       0.490689868009599
   C             -0.000040867447297       0.500193011271659       0.491365234323428
   C              0.165658456393316       0.832450613228347       0.494770437998677
   C              0.000036783534566       0.750051054111507       0.496884829953025
   C              0.414473075191451       0.078975183272820       0.502886082312701
   C              0.250501726620680      -0.000585959905851       0.498156881507559
   C              0.415133623774455       0.336167034856353       0.504075888245658
   C              0.249739695864110       0.250701588296353       0.496380296667372
   C              0.415968349515833       0.583106463989082       0.496353233705579
   C              0.249969741778544       0.500237360678909       0.491403646469507
   C              0.416519108902810       0.832518042909531       0.494728958334366
   C              0.249555154770340       0.749496793130465       0.493017403823545
   C              0.667160450379473       0.083711269281347       0.496820829709938
   C              0.498973710645893      -0.000574064120089       0.498103692142942
   C              0.671199729587113       0.336230663220691       0.503977567276084
   C              0.499756579796292       0.249326909697979       0.522133344539751
   C              0.667401713300316       0.584553401802879       0.522104638048618
   C              0.495912121944490       0.497678696082635       0.504055584209560
   C              0.668073229911431       0.834447554603786       0.498089045901923
   C              0.499914619340286       0.750193406160443       0.496849126741514
   C              0.917350897083918       0.084435953394858       0.492970650878450
   C              0.750510961507555       0.001367710708061       0.494699620238651
   C              0.916931423340284       0.333666579691774       0.491341889616424
   C              0.751080846533879       0.250785534095969       0.496282940205608
   C              0.917175198886052       0.583184242025953       0.496313241519150
   C              0.751932252700563       0.497718408805254       0.503983992632654
   C              0.916369459361449       0.834397833233994       0.498101777422319
   C              0.752514033731622       0.754846500466336       0.502834920959581
%ENDBLOCK positions_frac

FIX_COM : false

%BLOCK species_gamma
   radsectesla
   H          267522128.0    
%ENDBLOCK species_gamma

%BLOCK species_pot
   H       1|0.6|13|15|17|10(qc=8)
   C       1|1.2|17|20|23|20N:21L(qc=8)
%ENDBLOCK species_pot

SYMMETRY_TOL :     0.001000

%BLOCK symmetry_ops
# Symm. op. 1       E
          1.000000000000000       0.000000000000000       0.000000000000000
          0.000000000000000       1.000000000000000       0.000000000000000
          0.000000000000000       0.000000000000000       1.000000000000000
          0.000000000000000       0.000000000000000       0.000000000000000
%ENDBLOCK symmetry_ops

kpoint_mp_grid :    4   4   1

