# CELL file written 03:31:13 (GMT+1.0) 29th October 2022 from run 9x9

%BLOCK lattice_cart
   ANG
       22.2300000000000        0.00000000000000        0.00000000000000    
      -11.1150000000000        19.2517450000000        0.00000000000000    
       0.00000000000000        0.00000000000000        20.0340000000000    
%ENDBLOCK lattice_cart

%BLOCK cell_constraints
      0   0   0
      0   0   0
%ENDBLOCK cell_constraints

%BLOCK positions_frac
   H              0.399564090707230       0.401221098359035       0.685035275898939
   H              0.366208788674420       0.367360574349908       0.688959079696529
   C              0.073920860508305       0.036834668061241       0.499855998091514
   C             -0.000041630399092      -0.000103958511748       0.499488100158686
   C              0.073778945573542       0.147898266622430       0.500662147568777
   C             -0.000202064599124       0.110866664354838       0.500038410398078
   C              0.073716683443180       0.259024750428516       0.500566884487086
   C             -0.000260748547052       0.221962382573351       0.499817668755368
   C              0.073733821912997       0.370202561516325       0.499579095612356
   C             -0.000231682290503       0.333153062005298       0.498978487200424
   C              0.073757819652714       0.481408456878485       0.497892327322672
   C             -0.000191860370864       0.444361975813292       0.497607900114653
   C              0.073796665940343       0.592614545814949       0.496382766381462
   C             -0.000151883788793       0.555553931333400       0.496459813410478
   C              0.073827649425758       0.703800641224498       0.495954796265865
   C             -0.000128799751159       0.666726568515724       0.496257841308357
   C              0.073864832499393       0.814960168610589       0.496735824234244
   C             -0.000105656052462       0.777872987712571       0.496961469485495
   C              0.073852940681789       0.925977472793319       0.498306533338695
   C             -0.000131859225410       0.888928703870241       0.498286571941425
   C              0.184912094332449       0.036680775839942       0.499651639800387
   C              0.110902546781271      -0.000225055622135       0.499281631476385
   C              0.184937742329021       0.147871784181448       0.501326301871683
   C              0.110851461341981       0.110866594588711       0.500679928646951
   C              0.184893091760347       0.259046896454342       0.501970458539309
   C              0.110768980492854       0.221983893352794       0.501132644292098
   C              0.184868518543294       0.370223555560747       0.501365407390591
   C              0.110750423555640       0.333135619623487       0.500558740155974
   C              0.184873703080825       0.481411774509690       0.499794571578627
   C              0.110752990379718       0.444329208485651       0.499089474872266
   C              0.184892738111000       0.592615047413958       0.497784229883263
   C              0.110774811354761       0.555520294349524       0.497238796753949
   C              0.184919299250854       0.703812480555092       0.496365980681445
   C              0.110804358387227       0.666713071235585       0.496027448088916
   C              0.184976289734905       0.814982670511063       0.496412239734337
   C              0.110857102561903       0.777907818405813       0.496214285129659
   C              0.184951132160387       0.925951863483956       0.497762204945426
   C              0.110878428845393       0.889019502067342       0.497505507893544
   C              0.296008961847272       0.036647365385512       0.499365816176978
   C              0.221944894415829      -0.000301371841914       0.498916251309678
   C              0.296062175591234       0.147821114138802       0.501243895573180
   C              0.221949760697564       0.110752056727563       0.500811383873167
   C              0.296105675900346       0.259056633775241       0.502726379716647
   C              0.221979425132192       0.221987989124254       0.502157724090175
   C              0.296102574479594       0.370263375745956       0.502991489828779
   C              0.221959384709422       0.333184629161620       0.502245498553818
   C              0.296081468059404       0.481455059413861       0.501737341964332
   C              0.221942068393360       0.444362848846423       0.501051725272103
   C              0.296104064501431       0.592653672817798       0.499818818271172
   C              0.221949479875632       0.555552268858409       0.499137676876794
   C              0.296129977071825       0.703861704044366       0.497907661152880
   C              0.221967872181867       0.666749140589863       0.497239257913775
   C              0.296174631773381       0.815034921924642       0.497002689179509
   C              0.222025488994468       0.777942943627918       0.496422077355328
   C              0.296138712420360       0.925996318089442       0.497622532597363
   C              0.222057410904873       0.889046709302322       0.497151408169606
   C              0.407179466111598       0.036676938506617       0.498939788680458
   C              0.333093290885952      -0.000275640651118       0.498628577198182
   C              0.407220097697958       0.147810418018678       0.500671469430703
   C              0.333072074762611       0.110721856830920       0.500490301698021
   C              0.407279973862660       0.259043400841781       0.502398284204917
   C              0.333137856777184       0.221956633622207       0.502269200156841
   C              0.407313454804858       0.370259737002590       0.503375984127922
   C              0.333172820127778       0.333195889449226       0.503273399113339
   C              0.407298912837244       0.481463949086257       0.503062840102865
   C              0.333151704591541       0.444399069022674       0.502800014529049
   C              0.407316732965699       0.592679130798416       0.501456285681855
   C              0.333160751662076       0.555584615538124       0.501089066329419
   C              0.407357599264038       0.703897533357219       0.499644877166039
   C              0.333183879287834       0.666791354028321       0.499130901566539
   C              0.407400985872396       0.815086229633263       0.498201145196234
   C              0.333240916133185       0.777996266211043       0.497601486069084
   C              0.407350317889394       0.926054492232392       0.497931112431401
   C              0.333261759509590       0.889102026336653       0.497415121333908
   C              0.518390560402770       0.036733027310966       0.498647443629214
   C              0.444305225178919      -0.000220152441806       0.498452782284229
   C              0.518432809030667       0.147844055746103       0.499764282117680
   C              0.444267476762494       0.110750724091754       0.499819900433287
   C              0.518475826960240       0.259062313500386       0.501172198619806
   C              0.444311077590672       0.221957474817393       0.501509718969672
   C              0.518520246731481       0.370283451590313       0.502454593430736
   C              0.444370190702595       0.333187333318031       0.502941336010707
   C              0.518534536789730       0.481482627337916       0.502857233336284
   C              0.444376423695867       0.444400492496679       0.503351552437415
   C              0.518539351507835       0.592687874755151       0.502118041352161
   C              0.444377672564603       0.555601790321956       0.502362871318515
   C              0.518573430553106       0.703929267545933       0.500690794845704
   C              0.444413550301601       0.666815609288109       0.500657112537505
   C              0.518634737977845       0.815138896022313       0.499286256758727
   C              0.444476132818001       0.778043771557541       0.499033671797177
   C              0.518579929152662       0.926111116168867       0.498516758530921
   C              0.444492371536894       0.889162592532094       0.498142022645385
   C              0.629616067649115       0.036772543899573       0.498715106943073
   C              0.555524147146487      -0.000165574231665       0.498562407162549
   C              0.629645245735414       0.147884418807938       0.498917446966151
   C              0.555490495299819       0.110794924821265       0.499069781262905
   C              0.629694551666868       0.259091153768497       0.499799079807446
   C              0.555526780266962       0.221988975242641       0.500286891303731
   C              0.629741512784799       0.370316470404590       0.500762382422750
   C              0.555574185584730       0.333220632543732       0.501556756496557
   C              0.629766954225494       0.481516308781605       0.501383750452015
   C              0.555610613214002       0.444428855943083       0.502388120092118
   C              0.629770261194438       0.592697480948456       0.501495426043950
   C              0.555615277548480       0.555617187647091       0.502317561973590
   C              0.629780505084281       0.703919984311589       0.500813782026048
   C              0.555623180102623       0.666833208289851       0.501276159635946
   C              0.629833280118951       0.815151854638932       0.499836923881279
   C              0.555693457910369       0.778075207134555       0.499928590571028
   C              0.629788421710330       0.926144385164832       0.499020567724408
   C              0.555713141676639       0.889210915514203       0.498906895008218
   C              0.740827762047991       0.036811005396826       0.498954573709875
   C              0.666739464341265      -0.000134406154070       0.498861064318685
   C              0.740858943579254       0.147934646203115       0.498719121780074
   C              0.666706753673735       0.110835237497244       0.498734008166721
   C              0.740905895780087       0.259155347013964       0.498688613062430
   C              0.666748178165612       0.222024153702912       0.499092236251176
   C              0.740962865928472       0.370372410998682       0.499030079053339
   C              0.666798770679388       0.333253133008387       0.499898690356512
   C              0.741006568530603       0.481574670117027       0.499496236528176
   C              0.666845683570345       0.444475437579546       0.500615568873706
   C              0.741019144972633       0.592751529921185       0.499809461890423
   C              0.666862961223335       0.555653238743435       0.500971248844007
   C              0.740977966877824       0.703898966000781       0.499994414155220
   C              0.666834319786652       0.666827939454686       0.500843978996632
   C              0.740984926746871       0.815104914001947       0.499756224134619
   C              0.666866634782158       0.778058563568849       0.500161226074403
   C              0.740947917454721       0.926153993238197       0.499305100352543
   C              0.666895842942670       0.889223743216571       0.499336147357897
   C              0.852019478355550       0.036844411937235       0.499269963496198
   C              0.777944344927419      -0.000111623013947       0.499134663939556
   C              0.852051636366720       0.147987003968149       0.498984519101084
   C              0.777916863310352       0.110885589298994       0.498847419123397
   C              0.852094482638607       0.259212195821515       0.498517159741629
   C              0.777958580032497       0.222086594925057       0.498582312528235
   C              0.852148997592071       0.370442579902007       0.497989569213732
   C              0.778020169591492       0.333311333523100       0.498522674102403
   C              0.852204557748940       0.481645393551114       0.497729828890026
   C              0.778076812414889       0.444534983414059       0.498739676726511
   C              0.852240695558885       0.592817435014075       0.497882050592381
   C              0.778110809026629       0.555723987556309       0.499059252113493
   C              0.852196693154139       0.703934358672863       0.498394100266742
   C              0.778083937321569       0.666869289541436       0.499419118303834
   C              0.852114781226700       0.815000437361540       0.498963589025436
   C              0.778024353650616       0.778014092576690       0.499585722184431
   C              0.852022872218924       0.926066905726392       0.499289255487924
   C              0.778000689760616       0.889178529453602       0.499442034491255
   C              0.963063688089704       0.036905721658642       0.499666181222185
   C              0.889058353028333      -0.000127859378600       0.499395060047789
   C              0.963030883586979       0.148003262933301       0.499735426445079
   C              0.889044942336005       0.110905281032131       0.499280564644929
   C              0.963050600500965       0.259184087712125       0.499213155852489
   C              0.889078170750485       0.222113875176156       0.498868453446079
   C              0.963101798975216       0.370399250505196       0.498191366208911
   C              0.889135339005743       0.333344588881247       0.498155216895253
   C              0.963146134697102       0.481608192129789       0.497044452309566
   C              0.889194204404179       0.444565270499552       0.497489363981712
   C              0.963188850040006       0.592790866227106       0.496473283035332
   C              0.889238980940477       0.555752883606436       0.497256015923010
   C              0.963201455134943       0.703937229912907       0.496784021938171
   C              0.889236706074901       0.666909555249954       0.497590826384944
   C              0.963144200501063       0.814987040833083       0.497761994950541
   C              0.889185550415535       0.777992005828690       0.498334607000888
   C              0.962977368748792       0.925926295958900       0.498908757954418
   C              0.889019022367319       0.889021810185729       0.499024001053513
%ENDBLOCK positions_frac

FIX_COM : false

%BLOCK species_gamma
   radsectesla
   H          267522128.0    
%ENDBLOCK species_gamma

%BLOCK species_pot
   H       1|0.6|13|15|17|10(qc=8)
   C       1|1.2|17|20|23|20N:21L(qc=8)
%ENDBLOCK species_pot

SYMMETRY_TOL :     0.001000

%BLOCK symmetry_ops
# Symm. op. 1       E
          1.000000000000000       0.000000000000000       0.000000000000000
          0.000000000000000       1.000000000000000       0.000000000000000
          0.000000000000000       0.000000000000000       1.000000000000000
          0.000000000000000       0.000000000000000       0.000000000000000
%ENDBLOCK symmetry_ops

kpoint_mp_grid :    1   1   1

