# CELL file written 17:43:17 (GMT+1.0) 27th October 2022 from run 4x4

%BLOCK lattice_cart
   ANG
       9.88000000000000        0.00000000000000        0.00000000000000    
      -4.94000000000000        8.55633100000000        0.00000000000000    
       0.00000000000000        0.00000000000000        20.0339000000000    
%ENDBLOCK lattice_cart

%BLOCK cell_constraints
      0   0   0
      0   0   0
%ENDBLOCK cell_constraints

%BLOCK positions_frac
   H              0.423787244846260       0.352983031163215       0.675117679266660
   H              0.461790372876261       0.440516162841149       0.675172621733164
   C              0.166542115222110       0.083138161241351       0.497757151016405
   C             -0.000017202230901      -0.000181658881076       0.497864550105801
   C              0.166522057784347       0.333250473477123       0.497730485809088
   C             -0.000083004627882       0.249786698295623       0.497860929757813
   C              0.166550719858404       0.583431078021518       0.497875103429878
   C             -0.000066814830748       0.499922437600582       0.497908637402074
   C              0.166554503379339       0.833438891232891       0.497897289684263
   C             -0.000027104572425       0.750045898148062       0.497900287824443
   C              0.416640984162035       0.083111652664522       0.497756427728765
   C              0.249950386140442      -0.000206580543401       0.497798573418425
   C              0.416659698772215       0.333250762692416       0.497552356347709
   C              0.249922110811346       0.249821523072015       0.497638679621997
   C              0.416702213190126       0.583457641868865       0.497680512055735
   C              0.249935111837791       0.499990997355361       0.497745660259889
   C              0.416685248433858       0.833469115010292       0.497877950092355
   C              0.249969978708271       0.750120787513766       0.497894623405668
   C              0.666824551528741       0.083159997130995       0.497887869566655
   C              0.500105753054461      -0.000186952082054       0.497859205837648
   C              0.666869048773953       0.333298731315366       0.497729646365262
   C              0.500099311307627       0.249833458602324       0.497641389769167
   C              0.666866452295062       0.583451408368835       0.497680770903931
   C              0.500124249022180       0.500013713597568       0.497577974590253
   C              0.666854148054077       0.833497706570535       0.497833268993134
   C              0.500164554300809       0.750180819877523       0.497797198145456
   C              0.916833839606809       0.083241375297589       0.497891417229413
   C              0.750247845791392      -0.000139537708271       0.497902607364112
   C              0.916859550040854       0.333353402949121       0.497904484015224
   C              0.750239054994932       0.249855780038287       0.497857995024160
   C              0.916887217408325       0.583502382515847       0.497879843857685
   C              0.750283442168177       0.500044707253289       0.497747678908571
   C              0.916802974417612       0.833451471734853       0.497883415673084
   C              0.750243548670047       0.750140254989126       0.497798071794610
%ENDBLOCK positions_frac

FIX_COM : false

%BLOCK species_gamma
   radsectesla
   H          267522128.0    
%ENDBLOCK species_gamma

%BLOCK species_pot
   H       1|0.6|13|15|17|10(qc=8)
   C       1|1.2|17|20|23|20N:21L(qc=8)
%ENDBLOCK species_pot

SYMMETRY_TOL :     0.001000

%BLOCK symmetry_ops
# Symm. op. 1       E
          1.000000000000000       0.000000000000000       0.000000000000000
          0.000000000000000       1.000000000000000       0.000000000000000
          0.000000000000000       0.000000000000000       1.000000000000000
          0.000000000000000       0.000000000000000       0.000000000000000
%ENDBLOCK symmetry_ops

kpoint_mp_grid :    4   4   1

