# CELL file written 02:31:59 (GMT+1.0) 28th October 2022 from run 4x4

%BLOCK lattice_cart
   ANG
       9.88000000000000        0.00000000000000        0.00000000000000    
      -4.94000000000000        8.55633100000000        0.00000000000000    
       0.00000000000000        0.00000000000000        20.0339000000000    
%ENDBLOCK lattice_cart

%BLOCK cell_constraints
      0   0   0
      0   0   0
%ENDBLOCK cell_constraints

%BLOCK positions_frac
   H              0.414211839784691       0.331449864722067       0.686463090280833
   C              0.166596109174202       0.083245534800391       0.498769588428994
   C              0.000031590940154      -0.000050204556187       0.498934794507332
   C              0.166510102808201       0.333310073339472       0.498781966916604
   C             -0.000080420551923       0.249860611989865       0.498943236762314
   C              0.166576747275333       0.583495344391180       0.498964664573711
   C             -0.000005976655340       0.500027311859162       0.498971411927431
   C              0.166561832286508       0.833492877299725       0.498960264952816
   C             -0.000016305724442       0.750124428449257       0.498961849867062
   C              0.416597887439024       0.083167277774969       0.498765254757198
   C              0.249976926147441      -0.000088623472904       0.498808238013027
   C              0.416680312206269       0.333356762667013       0.498472287765859
   C              0.249960162985613       0.249937798895162       0.498610239972337
   C              0.416667744390574       0.583502191223678       0.498768190610920
   C              0.249960258442549       0.500061975324141       0.498816111794143
   C              0.416693634794027       0.833537092962924       0.498940867945164
   C              0.250021523450502       0.750240020905932       0.498975683929785
   C              0.666816258111262       0.083264597693052       0.498962467830126
   C              0.500140880431845      -0.000074911496103       0.498924394747554
   C              0.666835020718259       0.333389033248346       0.498763091207191
   C              0.500112752757431       0.249887082673405       0.498610938624587
   C              0.666890977617577       0.583564765946232       0.498758171199024
   C              0.500186806884833       0.500110258263386       0.498605031065100
   C              0.666809610675771       0.833550289483859       0.498964820715546
   C              0.500134329232299       0.750216329057189       0.498932986369693
   C              0.916810194237858       0.083289017170548       0.498977140355021
   C              0.750228450522383      -0.000052038214094       0.498976406563099
   C              0.916862439286071       0.333441404145159       0.498935372410208
   C              0.750269587847229       0.249968829704513       0.498923265675391
   C              0.916852171194669       0.583535775928400       0.498939918921881
   C              0.750282773096952       0.500113689820738       0.498789666197882
   C              0.916825687346002       0.833526613761812       0.498931080134053
   C              0.750261903024091       0.750227763161197       0.498926045599991
%ENDBLOCK positions_frac

FIX_COM : false

%BLOCK species_gamma
   radsectesla
   H          267522128.0    
%ENDBLOCK species_gamma

%BLOCK species_pot
   H       1|0.6|13|15|17|10(qc=8)
   C       1|1.2|17|20|23|20N:21L(qc=8)
%ENDBLOCK species_pot

SYMMETRY_TOL :     0.001000

%BLOCK symmetry_ops
# Symm. op. 1       E
          1.000000000000000       0.000000000000000       0.000000000000000
          0.000000000000000       1.000000000000000       0.000000000000000
          0.000000000000000       0.000000000000000       1.000000000000000
          0.000000000000000       0.000000000000000       0.000000000000000
%ENDBLOCK symmetry_ops

kpoint_mp_grid :    4   4   1

