# CELL file written 17:28:36 (GMT+1.0) 29th October 2022 from run 9x9

%BLOCK lattice_cart
   ANG
       22.2300000000000        0.00000000000000        0.00000000000000    
      -11.1150000000000        19.2517450000000        0.00000000000000    
       0.00000000000000        0.00000000000000        20.0340000000000    
%ENDBLOCK lattice_cart

%BLOCK cell_constraints
      0   0   0
      0   0   0
%ENDBLOCK cell_constraints

%BLOCK positions_frac
   H              0.433821434915346       0.435962711983827       0.617085317464201
   H              0.339658037882778       0.341677541851958       0.617502448590477
   C              0.073799161121624       0.036638263630698       0.498277955900273
   C             -0.000112264411226      -0.000193622997243       0.498321406315048
   C              0.073897194507080       0.147841930169477       0.500230104276351
   C             -0.000089987989388       0.110894156838792       0.499384134557502
   C              0.073850810620037       0.259069030278016       0.500016136517686
   C             -0.000001159610845       0.222102773162099       0.499226549740913
   C              0.073799987965465       0.370270288431609       0.497665590058102
   C             -0.000185286436262       0.333182862429234       0.497841483209778
   C              0.073801673247416       0.481469644187781       0.496517306449430
   C             -0.000189295051177       0.444378255256903       0.496908536836052
   C              0.073782843287088       0.592590532207465       0.496629864567566
   C             -0.000102562781623       0.555563491856157       0.496863234331617
   C              0.073855371618643       0.703792736223329       0.497051033375455
   C             -0.000071117713689       0.666732595425319       0.497171762551681
   C              0.073869421048081       0.814901344092579       0.497348246942847
   C             -0.000096497491992       0.777887435454512       0.497530651313149
   C              0.073738805663851       0.925772766149068       0.497511906878195
   C             -0.000200596125461       0.888861183107818       0.497760794351286
   C              0.184747726079437       0.036366696319431       0.497823144416432
   C              0.110737121252309      -0.000426900199336       0.497732016463474
   C              0.184624188861280       0.147319931024721       0.500573368854514
   C              0.110740384401218       0.110670119939871       0.499377104471631
   C              0.184675256874304       0.258760168779120       0.504963437633039
   C              0.111088795528284       0.222028163841434       0.501663193768648
   C              0.185025996480346       0.370451223723210       0.500049291898693
   C              0.110887169798959       0.333241870940353       0.498983849727004
   C              0.184819431833829       0.481434730610034       0.496946075508089
   C              0.110808307697022       0.444363995593074       0.496826182308012
   C              0.184869929422525       0.592660677368675       0.496089764230766
   C              0.110762946624911       0.555517344397608       0.496311339060482
   C              0.184956897182383       0.703861900498791       0.496584144705494
   C              0.110823678823587       0.666739126827718       0.496744901328745
   C              0.184910316103501       0.814890441504823       0.496971071536829
   C              0.110871509987329       0.777895107091809       0.497124580684778
   C              0.184841316704271       0.925779166201571       0.497102834587525
   C              0.110800567378637       0.888866062666660       0.497301233251748
   C              0.295797809869441       0.036386921628847       0.497462106017365
   C              0.221827631466386      -0.000526221638630       0.497303982673192
   C              0.295639717988843       0.147327495363675       0.499895601603817
   C              0.221707924324014       0.110373658948077       0.499328517989852
   C              0.296007515839255       0.258608248046630       0.512230325065608
   C              0.222069443573291       0.221871168945455       0.505761473000776
   C              0.295866758579366       0.369840340023134       0.512789434964397
   C              0.222598814695103       0.333327033196475       0.505070129950444
   C              0.296119332695009       0.481400348470613       0.499316395296855
   C              0.222008301462696       0.444342092390350       0.498614234597027
   C              0.296076312410252       0.592707874752812       0.496953588674522
   C              0.221922587849985       0.555582432454281       0.496320920529439
   C              0.296056534870121       0.703827405214470       0.496487939221292
   C              0.221992302128085       0.666782401416868       0.496281638545866
   C              0.296132010196586       0.815010620009326       0.496858551505787
   C              0.222017051221915       0.777919518045492       0.496782570978664
   C              0.296097078971752       0.925905840136185       0.497085272401834
   C              0.221996350969875       0.888936295497065       0.497012071675446
   C              0.407036198965594       0.036650247882114       0.497707326731751
   C              0.333003860364701      -0.000410240332214       0.497348586431543
   C              0.407017766330966       0.147778645540226       0.499138551827448
   C              0.332847897590699       0.110505124125793       0.498396145731203
   C              0.407007554669060       0.258959951903293       0.503042574998943
   C              0.332650722261719       0.221928110469820       0.504817046895557
   C              0.407372035666881       0.370060625976836       0.516872569475334
   C              0.333541426392408       0.333016918872003       0.522641248158174
   C              0.407662388458527       0.481665157529006       0.512803842489625
   C              0.333548514914064       0.443970445354687       0.506364200431559
   C              0.407071638686980       0.592497694997490       0.500074989789149
   C              0.333166534412539       0.555503657911348       0.498619736753829
   C              0.407267611715813       0.703828980372314       0.497696886061169
   C              0.333138077524923       0.666732797259756       0.496835999932859
   C              0.407382563058461       0.815105780927004       0.497402399495105
   C              0.333205115963855       0.777995714226993       0.496850663770845
   C              0.407262808330469       0.926008176938193       0.497438059792835
   C              0.333259783539243       0.889068332811756       0.497089117327193
   C              0.518326752986593       0.036809381933454       0.498169228720402
   C              0.444211839932549      -0.000207237090495       0.497726475354764
   C              0.518244286529535       0.147972065832315       0.498515013323568
   C              0.444075658723457       0.110840160544684       0.498364746835651
   C              0.518261084376771       0.259281300007295       0.499919724370562
   C              0.443965712166465       0.222163934981473       0.500402011909970
   C              0.518571760861543       0.370534854582452       0.503080739866719
   C              0.443580343626440       0.333931897503645       0.506201843859869
   C              0.518926180611680       0.481531650931614       0.512480640365464
   C              0.444410425378521       0.443902583762042       0.522919018250839
   C              0.518797317732552       0.592885408882891       0.505119615552830
   C              0.444198843524770       0.554926500393731       0.505149128087442
   C              0.518500461698016       0.703799073888210       0.500106828005423
   C              0.444283704221331       0.666667053027778       0.499032890108256
   C              0.518483593569372       0.815000307136468       0.498553573562079
   C              0.444411705175665       0.777978701615513       0.497853087481718
   C              0.518498747817694       0.926102071271864       0.498246442466354
   C              0.444448855132242       0.889132868710040       0.497680492248956
   C              0.629506448260684       0.036782684738160       0.498733535551608
   C              0.555465232302573      -0.000098686791989       0.498400640889293
   C              0.629521131306949       0.148024624712681       0.498500305692111
   C              0.555321256800094       0.110934277612215       0.498373527195376
   C              0.629573652495888       0.259287422901098       0.498547819175541
   C              0.555288582114880       0.222232304036044       0.498908738323718
   C              0.629767328266485       0.370517933896889       0.499205149867097
   C              0.555361377570169       0.333562137606067       0.500427097286347
   C              0.630237974947066       0.481927226801644       0.500020682036368
   C              0.555606114348412       0.444902994506693       0.504977772710253
   C              0.630279280132178       0.592983717093630       0.500780295317108
   C              0.555700090794138       0.555499032254979       0.506024553201546
   C              0.629807682162371       0.703810968426522       0.500402664685537
   C              0.555550504305516       0.666488001911239       0.501803381697576
   C              0.629756641943070       0.815048613947673       0.499452895514604
   C              0.555517507420254       0.777800797106658       0.499304775525217
   C              0.629744283505121       0.926136669412724       0.499024629024518
   C              0.555623842476220       0.889167066039996       0.498620733294926
   C              0.740800624381361       0.036832468881741       0.499161623770104
   C              0.666679963033100      -0.000142406629095       0.499003812781952
   C              0.740860960594886       0.148049015948609       0.498728324697066
   C              0.666619335711191       0.110947131221788       0.498666383310303
   C              0.740839266749578       0.259218591352893       0.498193024174775
   C              0.666622453271308       0.222207128122271       0.498393270659472
   C              0.741003351418889       0.370521647140548       0.497782227994686
   C              0.666712401526079       0.333454405212422       0.498431584489597
   C              0.741280018485066       0.481785032467439       0.497576598880466
   C              0.667059267518292       0.444708181341048       0.498491141919803
   C              0.741356405474879       0.592914221995606       0.497991941125992
   C              0.667233348069621       0.555888310387838       0.499499606619888
   C              0.741196138244503       0.704034497636065       0.498436793549912
   C              0.667023758589880       0.666930849590439       0.499567555391007
   C              0.741002933386931       0.815099269290709       0.498883442696059
   C              0.666817304645591       0.777944365329809       0.499510093463761
   C              0.740889739099086       0.926081306826837       0.499203172238655
   C              0.666821970994750       0.889120361129967       0.499244173870826
   C              0.852086777914828       0.036871707339936       0.499184384098299
   C              0.777940747397367      -0.000098816058919       0.499235400198774
   C              0.852083801725116       0.148014882670969       0.499010879463310
   C              0.777956960886215       0.110956201706457       0.498996928832738
   C              0.852125884297097       0.259277984950742       0.498254625834691
   C              0.777908196924684       0.222149827270143       0.498403034347451
   C              0.852210223374952       0.370510396525290       0.497493968492375
   C              0.778010334038546       0.333403121293875       0.497777259455694
   C              0.852302296209006       0.481662560155946       0.497170306386597
   C              0.778207005573285       0.444619164177476       0.497437675924205
   C              0.852428131070097       0.592904243983153       0.497208803979567
   C              0.778327844781705       0.555831105892226       0.497441042016941
   C              0.852399699527537       0.704027559422296       0.497594438849814
   C              0.778288724804330       0.667018516822602       0.497880960597402
   C              0.852125052935709       0.814981222966960       0.498091207206893
   C              0.778100926568443       0.778055013239414       0.498414589147759
   C              0.852000285153732       0.926048250865048       0.498668260908364
   C              0.777987310735167       0.889143894368835       0.498915255789415
   C              0.963059814621263       0.036863573288154       0.498795832078453
   C              0.889071578846721      -0.000136832671672       0.498887132621986
   C              0.963155179497275       0.148053947047632       0.499366514296565
   C              0.889155243578655       0.110964969047772       0.499211843301654
   C              0.963197782616289       0.259303908325263       0.498517834606591
   C              0.889136291161692       0.222189291289071       0.498611269139124
   C              0.963096510145846       0.370394226762011       0.497432727608537
   C              0.889165879016238       0.333369497331471       0.497716159224089
   C              0.963188550899376       0.481632817341775       0.496939731787038
   C              0.889222230783486       0.444553502834429       0.497164762993383
   C              0.963301401221038       0.592845074776196       0.497047697091616
   C              0.889345985679343       0.555804779160013       0.497100562581047
   C              0.963264132624328       0.703919776344557       0.497388863824128
   C              0.889381520038084       0.666972720878866       0.497378716592469
   C              0.963139964309663       0.814956864475343       0.497720794898536
   C              0.889220667900979       0.778042019751463       0.497790804673619
   C              0.962946649830564       0.925877346107244       0.498054033873644
   C              0.888974205991999       0.889012337044732       0.498247073567128
%ENDBLOCK positions_frac

FIX_COM : false

%BLOCK species_gamma
   radsectesla
   H          267522128.0    
%ENDBLOCK species_gamma

%BLOCK species_pot
   H       1|0.8|14|16|19|10N(qc=8)
   C       1|1.2|17|20|23|20N:21L(qc=8)
%ENDBLOCK species_pot

SYMMETRY_TOL :     0.001000

%BLOCK symmetry_ops
# Symm. op. 1       E
          1.000000000000000       0.000000000000000       0.000000000000000
          0.000000000000000       1.000000000000000       0.000000000000000
          0.000000000000000       0.000000000000000       1.000000000000000
          0.000000000000000       0.000000000000000       0.000000000000000
%ENDBLOCK symmetry_ops

kpoint_mp_grid :    1   1   1

