# CELL file written 13:24:53 (GMT+1.0) 27th October 2022 from run 4x4

%BLOCK lattice_cart
   ANG
       9.88000000000000        0.00000000000000        0.00000000000000    
      -4.94000000000000        8.55633100000000        0.00000000000000    
       0.00000000000000        0.00000000000000        20.0339000000000    
%ENDBLOCK lattice_cart

%BLOCK cell_constraints
      0   0   0
      0   0   0
%ENDBLOCK cell_constraints

%BLOCK positions_frac
   H              0.408120779565307       0.322141218673159       0.578898894566385
   H              0.678346568948376       0.592240495316451       0.578846138282867
   C              0.165730865350752       0.083511525289796       0.497456739819386
   C             -0.000483100885350       0.000395980109765       0.493061687191218
   C              0.165409317811524       0.332101594445023       0.495260772414501
   C             -0.000786662370157       0.249620721296538       0.490337554155219
   C              0.166847196273391       0.582907986993883       0.493871252677318
   C             -0.000320693075511       0.499472792975524       0.493128033422079
   C              0.166489064425842       0.833624523071121       0.497560468386125
   C              0.000086464308736       0.750446841241852       0.499217754183390
   C              0.417763031813482       0.084093716876645       0.498274024412879
   C              0.249650234323932      -0.000222025990598       0.499238608854759
   C              0.413355723054171       0.331077843153181       0.522600120201230
   C              0.245147133517250       0.247626876176170       0.501542965824802
   C              0.417745011432540       0.582528334126726       0.499168109115300
   C              0.248887638594660       0.499407787697128       0.495765710290942
   C              0.417319868122626       0.833302652329092       0.493880738919644
   C              0.250106207988394       0.750112109136607       0.495119130996870
   C              0.666844358471104       0.083572090058934       0.490550883973402
   C              0.500671111494053       0.000186049941936       0.493153867982182
   C              0.666832795805881       0.333428594140359       0.498731701347328
   C              0.501477265455384       0.248030467958392       0.503638292060558
   C              0.669212037753162       0.586908482527536       0.522565410444356
   C              0.497684058176514       0.502610585989837       0.508993728417858
   C              0.668089221050685       0.834708338425150       0.495236705875809
   C              0.500843678318291       0.751331923261175       0.495759099583562
   C              0.916659732844159       0.083515598365144       0.490502021064645
   C              0.750503475957623       0.000655444417431       0.490337977997024
   C              0.916560115880598       0.333428853675007       0.490536101213981
   C              0.750255910900644       0.249956101023640       0.491458957472258
   C              0.916021006455948       0.582483227864711       0.498220294391974
   C              0.752165735422935       0.498768577180565       0.503582067519133
   C              0.916564562903609       0.834394426400801       0.497414015484698
   C              0.752536874629171       0.755005823201772       0.501491051065447
%ENDBLOCK positions_frac

FIX_COM : false

%BLOCK species_gamma
   radsectesla
   H          267522128.0    
%ENDBLOCK species_gamma

%BLOCK species_pot
   H       1|0.6|13|15|17|10(qc=8)
   C       1|1.2|17|20|23|20N:21L(qc=8)
%ENDBLOCK species_pot

SYMMETRY_TOL :     0.001000

%BLOCK symmetry_ops
# Symm. op. 1       E
          1.000000000000000       0.000000000000000       0.000000000000000
          0.000000000000000       1.000000000000000       0.000000000000000
          0.000000000000000       0.000000000000000       1.000000000000000
          0.000000000000000       0.000000000000000       0.000000000000000
%ENDBLOCK symmetry_ops

kpoint_mp_grid :    4   4   1

