# CELL file written 05:07:51 (GMT+1.0) 28th October 2022 from run 9x9

%BLOCK lattice_cart
   ANG
       22.2300000000000        0.00000000000000        0.00000000000000    
      -11.1150000000000        19.2517450000000        0.00000000000000    
       0.00000000000000        0.00000000000000        20.0340000000000    
%ENDBLOCK lattice_cart

%BLOCK cell_constraints
      0   0   0
      0   0   0
%ENDBLOCK cell_constraints

%BLOCK positions_frac
   H              0.444402213001175       0.444406740294449       0.584098912229516
   C              0.073899493698448       0.036755536288844       0.498460489765664
   C             -0.000000738528861      -0.000075292235248       0.498602672550287
   C              0.073913490359695       0.147909269076818       0.498951044195656
   C             -0.000127381352490       0.110895840456127       0.498953805493528
   C              0.073823765882939       0.259060626755709       0.499587799413249
   C              0.000035945093815       0.222108226967530       0.499304525532368
   C              0.073860927760650       0.370301621914011       0.498949872530194
   C             -0.000166453379322       0.333190223272930       0.498957963403382
   C              0.073735039877477       0.481452768011811       0.498468680332750
   C             -0.000167812509682       0.444370687325725       0.498618752625431
   C              0.073794134683182       0.592624938051905       0.498552519724751
   C             -0.000146417345354       0.555543225317505       0.498591912144906
   C              0.073871731746728       0.703834897833209       0.498764905483990
   C             -0.000072450066374       0.666759074411054       0.498662212835634
   C              0.073905389194788       0.814973478437730       0.498759786950063
   C             -0.000055435754417       0.777901740220025       0.498654062432512
   C              0.073863104260646       0.925964892327840       0.498538793731561
   C             -0.000112244319578       0.888975701837023       0.498571193801194
   C              0.184886093276238       0.036553633869394       0.498272545710879
   C              0.110867226184510      -0.000273423448882       0.498385212400138
   C              0.184858570952940       0.147708829718656       0.498721323177732
   C              0.110873511936130       0.110836570469806       0.498613866333974
   C              0.185008517864201       0.258920503801637       0.500548557076322
   C              0.111037234210972       0.222048341881472       0.499584773375473
   C              0.184988397105923       0.370444419182210       0.500540376948556
   C              0.111008726084205       0.333306053133336       0.499581254565842
   C              0.184802379529960       0.481492950092962       0.498704289559741
   C              0.110776032780101       0.444359631787703       0.498612264037418
   C              0.184864282104222       0.592717430328560       0.498261628026327
   C              0.110737020232729       0.555534378311796       0.498392908745658
   C              0.184920642023762       0.703874924937839       0.498556731239189
   C              0.110829577991564       0.666741741731702       0.498654732633423
   C              0.184979638700829       0.814999651693037       0.498760866946055
   C              0.110885983176826       0.777921317572351       0.498812306519546
   C              0.184944710818850       0.925906310977389       0.498562294412548
   C              0.110907324436805       0.889014695797725       0.498648772638208
   C              0.295932783198309       0.036508925272999       0.498277560440848
   C              0.221941214965400      -0.000350316118222       0.498325906399425
   C              0.295884262761787       0.147443391987965       0.498692830884766
   C              0.221911806669652       0.110587509421267       0.498408162136751
   C              0.296049070456101       0.258668421851272       0.501093728932240
   C              0.221896752025535       0.221813980420682       0.499827962523683
   C              0.295901531681100       0.370151714333026       0.505718003835226
   C              0.222587268417496       0.333482953513927       0.502275777254085
   C              0.296048646947786       0.481779263812117       0.501070655890216
   C              0.221872855269209       0.444447114409880       0.499808633052131
   C              0.295940566354775       0.592855950212611       0.498658671331716
   C              0.221924596193149       0.555693696863669       0.498384482592135
   C              0.296071685345202       0.703934574940551       0.498255154770677
   C              0.221975860316530       0.666810948590722       0.498312579572954
   C              0.296192205172999       0.815082041506574       0.498541022560732
   C              0.222043679398093       0.777981218617177       0.498649921554639
   C              0.296153134404113       0.925978673486386       0.498549657636036
   C              0.222073178082647       0.889048492072578       0.498654559733568
   C              0.407136796986104       0.036582804986615       0.498469697402853
   C              0.333103395015325      -0.000342643008289       0.498396495399987
   C              0.407147468922108       0.147644344606185       0.498715156202687
   C              0.332963042723802       0.110547108178214       0.498409346518834
   C              0.406965082121351       0.258658859902634       0.501078037554406
   C              0.333024520886410       0.221706328619541       0.500092739382466
   C              0.406383542952960       0.368393515415025       0.510206535509137
   C              0.333385168065934       0.332794991387973       0.505634508239278
   C              0.406396408465606       0.482419772858656       0.510205535513429
   C              0.333390935102219       0.444998292144842       0.505624632908193
   C              0.407024175744510       0.592755617107364       0.501064900051035
   C              0.333069015481741       0.555731529122521       0.500061393586563
   C              0.407304574061557       0.704000745767054       0.498697662956570
   C              0.333095547386810       0.666866948586697       0.498379736089000
   C              0.407373185828777       0.815147889732084       0.498459671269077
   C              0.333255021663872       0.778080674519346       0.498382751342368
   C              0.407339073345037       0.926043571064322       0.498594100954317
   C              0.333312161066479       0.889129836033288       0.498579168525465
   C              0.518376719899743       0.036731809566973       0.498810385027699
   C              0.444295389977122      -0.000223085788001       0.498612907760800
   C              0.518315265407700       0.147847744637793       0.498940104294059
   C              0.444225346495512       0.110709715199891       0.498613518935826
   C              0.518255105300245       0.258941698220636       0.500513324108081
   C              0.444240895133792       0.221782501468244       0.499806914066094
   C              0.518631527730797       0.370185947354322       0.505689378349487
   C              0.443777138565506       0.332799754993022       0.505614723319502
   C              0.520425019236454       0.482435945017694       0.510208464615519
   C              0.444402879012342       0.444413911946927       0.528003447424809
   C              0.518667536268429       0.592913037058198       0.505717712175014
   C              0.443812576122520       0.555416890269061       0.505620675340921
   C              0.518368241751413       0.703824663056905       0.500539183682327
   C              0.444352910575260       0.666928612753392       0.499802221479719
   C              0.518531653362495       0.815022696889651       0.498952799730464
   C              0.444441165351214       0.778046607508069       0.498607878962212
   C              0.518575456306249       0.926077614370253       0.498812556212998
   C              0.444494873730267       0.889151910393622       0.498609957756089
   C              0.629554973007700       0.036737362859111       0.499188385280677
   C              0.555531053566644      -0.000174038838561       0.498954355342911
   C              0.629563193590903       0.147889395624842       0.499199403684796
   C              0.555443370397664       0.110800588139734       0.498953631388318
   C              0.629659314792660       0.259144127349997       0.499560201103006
   C              0.555352055405418       0.222062655673330       0.499556306070598
   C              0.629867627962654       0.370552728470202       0.500511538959194
   C              0.555276818341689       0.333531428728183       0.502235845594534
   C              0.630160063497588       0.481850836823407       0.501075417326213
   C              0.556014492912034       0.445035680381644       0.505614881587678
   C              0.630163590529774       0.592777471160416       0.501093872312849
   C              0.556025172570573       0.555432748950834       0.505635072910901
   C              0.629911552986497       0.703817937516314       0.500554448901318
   C              0.555336030779965       0.666225618092138       0.502275869134964
   C              0.629792330930824       0.815064846001526       0.499600968422663
   C              0.555508892915411       0.777816898608097       0.499586556995482
   C              0.629718223569749       0.926059435179254       0.499213498114565
   C              0.555679795596273       0.889153563881251       0.498963077899231
   C              0.740821183245619       0.036774296729365       0.499371293617851
   C              0.666704339811777      -0.000222222135529       0.499280153496471
   C              0.740851283325192       0.147956681372876       0.499369192287676
   C              0.666664216936105       0.110884044731322       0.499276019277461
   C              0.740917744487381       0.259235046071736       0.499198791787654
   C              0.666623953668741       0.222173203588033       0.499292737513749
   C              0.740964779191890       0.370483984082108       0.498939277303155
   C              0.666738890901494       0.333444727234282       0.499554671307371
   C              0.741175870175442       0.481662269735428       0.498714491730936
   C              0.667025240850678       0.444564738251336       0.499802923742592
   C              0.741388785965183       0.592941090269884       0.498694693008583
   C              0.667116865771565       0.555793939953071       0.500090058656149
   C              0.741150388249070       0.703992913618772       0.498729402501768
   C              0.667023773353810       0.666931599760094       0.499831214744671
   C              0.740980368674564       0.814993334405478       0.498965233665316
   C              0.666796008426713       0.777804743845092       0.499596191265798
   C              0.740953932203452       0.926066787133395       0.499214755139953
   C              0.666765814189046       0.888949403639405       0.499318205170555
   C              0.852068530761044       0.036814872099078       0.499184611622038
   C              0.777910611257484      -0.000194724679971       0.499278319012280
   C              0.852103276654242       0.148005937334367       0.499369066094962
   C              0.777931550227095       0.110889294682967       0.499409492928439
   C              0.852143996782831       0.259268590057691       0.499186704734466
   C              0.777933449942810       0.222134550565540       0.499275236756046
   C              0.852151289043372       0.370449870223218       0.498814058942967
   C              0.778018562349469       0.333356035599609       0.498953955583124
   C              0.852299271437232       0.481693792383061       0.498478321178253
   C              0.778114824896911       0.444579569124958       0.498616188168154
   C              0.852377260789144       0.592908398655619       0.498286288929520
   C              0.778283276159730       0.555850581921726       0.498412665854404
   C              0.852350275263269       0.703991311871044       0.498283498238273
   C              0.778262475803021       0.666925420859528       0.498415937098405
   C              0.852204226374621       0.815053918388296       0.498473196952714
   C              0.778062014139874       0.778005364067978       0.498627236649627
   C              0.852022832353000       0.926044527281283       0.498810678369645
   C              0.778000505181884       0.889124669558686       0.498967291111181
   C              0.963107715734831       0.036931679545329       0.498804385813427
   C              0.889080023207282      -0.000118877705655       0.498947630780407
   C              0.963141419058603       0.148022237588186       0.499204872579001
   C              0.889157733300067       0.110958850734196       0.499274206009181
   C              0.963158256034634       0.259268233916251       0.499206071720185
   C              0.889189272546195       0.222159689897122       0.499276530616716
   C              0.963138970245412       0.370409747210486       0.498814946359167
   C              0.889146083255907       0.333336074316727       0.498954543721261
   C              0.963172137289366       0.481637756561558       0.498606835557453
   C              0.889193561288081       0.444570556723718       0.498621096428177
   C              0.963232786745083       0.592811575849765       0.498560800876237
   C              0.889311541765957       0.555768316626136       0.498407809966486
   C              0.963293084847381       0.703989481168625       0.498569814560464
   C              0.889320699060994       0.666945595307753       0.498336994008157
   C              0.963195123924740       0.815034566378041       0.498545228026342
   C              0.889262031030234       0.778061414357415       0.498397474864647
   C              0.963010530989492       0.925939686264335       0.498586362648001
   C              0.889032862715952       0.889018417254058       0.498610003255834
%ENDBLOCK positions_frac

FIX_COM : false

%BLOCK species_gamma
   radsectesla
   H          267522128.0    
%ENDBLOCK species_gamma

%BLOCK species_pot
   H       1|0.6|13|15|17|10(qc=8)
   C       1|1.2|17|20|23|20N:21L(qc=8)
%ENDBLOCK species_pot

SYMMETRY_TOL :     0.001000

%BLOCK symmetry_ops
# Symm. op. 1       E
          1.000000000000000       0.000000000000000       0.000000000000000
          0.000000000000000       1.000000000000000       0.000000000000000
          0.000000000000000       0.000000000000000       1.000000000000000
          0.000000000000000       0.000000000000000       0.000000000000000
%ENDBLOCK symmetry_ops

kpoint_mp_grid :    1   1   1

