# CELL file written 13:00:17 (GMT+1.0) 27th October 2022 from run 4x4

%BLOCK lattice_cart
   ANG
       9.88000000000000        0.00000000000000        0.00000000000000    
      -4.94000000000000        8.55633100000000        0.00000000000000    
       0.00000000000000        0.00000000000000        20.0339000000000    
%ENDBLOCK lattice_cart

%BLOCK cell_constraints
      0   0   0
      0   0   0
%ENDBLOCK cell_constraints

%BLOCK positions_frac
   H              0.396164893376058       0.292812219960224       0.582658791469966
   H              0.520487234227205       0.540730751140263       0.582699094796156
   C              0.165881962952041       0.083873903834503       0.496893611363586
   C             -0.000444302284113       0.000074240223387       0.492195430394797
   C              0.166322824550655       0.331852215543350       0.498893257222765
   C             -0.000369693236020       0.249412881643006       0.492988628720109
   C              0.166974365078008       0.584208227683827       0.492956738537164
   C             -0.000186695521587       0.500049104778412       0.492054537253847
   C              0.167306826029840       0.835130420858707       0.492897022875169
   C              0.000006469590711       0.750544973286662       0.492329113220501
   C              0.417863195322447       0.083880509221175       0.496819574039351
   C              0.249754736065260      -0.000173634596800       0.496617648504647
   C              0.412699189636314       0.325566720688332       0.529009917597633
   C              0.245734581263424       0.247957472156562       0.504282581696495
   C              0.414657889002478       0.585750189775254       0.504373621733913
   C              0.251236378922641       0.501773149761551       0.498917677015304
   C              0.416306068966404       0.833596592737455       0.492046336338471
   C              0.250109657591862       0.750629570348870       0.492213503901213
   C              0.666602925024529       0.083012329163970       0.492219989130472
   C              0.500410205272156       0.000040298286750       0.492028461930906
   C              0.665470971660045       0.331858756575425       0.498916208430412
   C              0.502047186190868       0.247879086452439       0.504337511621008
   C              0.670973981956574       0.585678866791601       0.504332570725142
   C              0.503985501764865       0.508027748563601       0.529040854182725
   C              0.666951098084746       0.833816611317989       0.496707480030799
   C              0.498837708607510       0.749745208605734       0.496888398209219
   C              0.916692071458769       0.083101381990402       0.492328488486140
   C              0.749396168091551      -0.001489959434052       0.492942014107849
   C              0.916903551917049       0.333611479973068       0.492048346831780
   C              0.749749797467546       0.249446018597985       0.492950082502543
   C              0.917076915976171       0.584245906528205       0.493009607082160
   C              0.750382412182544       0.501781280318988       0.498919295887324
   C              0.917137287212045       0.833572035887688       0.492220184970807
   C              0.750815539159293       0.749756726592894       0.496971659023112
%ENDBLOCK positions_frac

FIX_COM : false

%BLOCK species_gamma
   radsectesla
   H          267522128.0    
%ENDBLOCK species_gamma

%BLOCK species_pot
   H       1|0.6|13|15|17|10(qc=8)
   C       1|1.2|17|20|23|20N:21L(qc=8)
%ENDBLOCK species_pot

SYMMETRY_TOL :     0.001000

%BLOCK symmetry_ops
# Symm. op. 1       E
          1.000000000000000       0.000000000000000       0.000000000000000
          0.000000000000000       1.000000000000000       0.000000000000000
          0.000000000000000       0.000000000000000       1.000000000000000
          0.000000000000000       0.000000000000000       0.000000000000000
%ENDBLOCK symmetry_ops

kpoint_mp_grid :    4   4   1

