# CELL file written 15:05:34 (GMT+1.0) 28th October 2022 from run 4x4

%BLOCK lattice_cart
   ANG
       9.88000000000000        0.00000000000000        0.00000000000000    
      -4.94000000000000        8.55633100000000        0.00000000000000    
       0.00000000000000        0.00000000000000        20.0339000000000    
%ENDBLOCK lattice_cart

%BLOCK cell_constraints
      0   0   0
      0   0   0
%ENDBLOCK cell_constraints

%BLOCK positions_frac
   H              0.421947206915580       0.344659824892966       0.587992488139312
   H              0.494125879259343       0.488238096054726       0.588097515850113
   C              0.166127730403122       0.082957517048199       0.497675580589522
   C              0.000032735079107       0.000279739294845       0.493820473146478
   C              0.165667682495334       0.332418477469705       0.502488883339438
   C              0.001002470834882       0.250435516386504       0.495169830422271
   C              0.166915117926558       0.582544889842169       0.495198177430177
   C             -0.000700967550862       0.499020580279301       0.493055770986532
   C              0.166223180119516       0.832984148614347       0.493451245094447
   C             -0.000647253549572       0.749847972731544       0.493806625016054
   C              0.416608299911573       0.082924262723782       0.497638647761670
   C              0.249321070400068      -0.001080834203540       0.495912559073596
   C              0.413892115539882       0.327964453973451       0.517472625528410
   C              0.247711888065852       0.247628407695067       0.504796951923088
   C              0.416707559299655       0.585641650149831       0.504744997955032
   C              0.249779678819720       0.500677990791265       0.502495194487728
   C              0.416209038647451       0.832963134291166       0.493772039962333
   C              0.249998330162115       0.749919663682870       0.493738954328753
   C              0.666340881449795       0.083206193556714       0.493728104225589
   C              0.500096816379933       0.000245310521318       0.493763227048854
   C              0.666635629107653       0.332494717356633       0.502480553449865
   C              0.499732355167929       0.247655633425747       0.504758738466977
   C              0.668864848099084       0.585696302184850       0.504834115923711
   C              0.502690801382403       0.505510642214816       0.517371550859414
   C              0.667103140135813       0.834279537306770       0.495924371408740
   C              0.499815379869942       0.750381084718054       0.497623485436084
   C              0.917079851579251       0.083291596267658       0.493761354678352
   C              0.750191478823164       0.000203266739581       0.493470389203422
   C              0.917050378718660       0.334002517501675       0.493037724788912
   C              0.749411403764658       0.250521185592281       0.495174238060729
   C              0.915429272674041       0.582656180335740       0.495247256200222
   C              0.750771315586300       0.500758459078066       0.502559002079518
   C              0.916544638240065       0.832976179871636       0.493861767292074
   C              0.750421325378059       0.750382581214426       0.497708906725987
%ENDBLOCK positions_frac

FIX_COM : false

%BLOCK species_gamma
   radsectesla
   H          267522128.0    
%ENDBLOCK species_gamma

%BLOCK species_pot
   H       1|0.6|13|15|17|10(qc=8)
   C       1|1.2|17|20|23|20N:21L(qc=8)
%ENDBLOCK species_pot

SYMMETRY_TOL :     0.001000

%BLOCK symmetry_ops
# Symm. op. 1       E
          1.000000000000000       0.000000000000000       0.000000000000000
          0.000000000000000       1.000000000000000       0.000000000000000
          0.000000000000000       0.000000000000000       1.000000000000000
          0.000000000000000       0.000000000000000       0.000000000000000
%ENDBLOCK symmetry_ops

kpoint_mp_grid :    4   4   1

