# CELL file written 22:29:53 (GMT+1.0) 29th October 2022 from run 9x9

%BLOCK lattice_cart
   ANG
       22.2300000000000        0.00000000000000        0.00000000000000    
      -11.1150000000000        19.2517450000000        0.00000000000000    
       0.00000000000000        0.00000000000000        20.0340000000000    
%ENDBLOCK lattice_cart

%BLOCK cell_constraints
      0   0   0
      0   0   0
%ENDBLOCK cell_constraints

%BLOCK positions_frac
   H              0.413173134391463       0.428874580213424       0.599945312951982
   H              0.326900902037502       0.385725318904007       0.600387996413252
   C              0.073924352691262       0.036932840710449       0.498052721384819
   C             -0.000126938517934      -0.000098924059273       0.497721281296357
   C              0.073711111395659       0.147752172440590       0.498436068539782
   C             -0.000211804569404       0.110811634462327       0.497493280687270
   C              0.073636983913065       0.258845902728661       0.500239098268996
   C             -0.000396635795505       0.221811326113099       0.497999750818918
   C              0.073760847809339       0.370104388612119       0.498383507439010
   C             -0.000205122884370       0.333086376729979       0.497457876373045
   C              0.073841326805634       0.481304901364577       0.497993251149394
   C             -0.000196053192966       0.444274650806616       0.497683582377475
   C              0.073945655047773       0.592676375811257       0.497649070978690
   C             -0.000251250297430       0.555560628359930       0.497636058938535
   C              0.073895725081531       0.703922506087693       0.497607362742094
   C             -0.000144906836118       0.666875622179472       0.497707305682826
   C              0.073908040673544       0.815063793361641       0.497640972760311
   C             -0.000132443606617       0.777944865204515       0.497728845348093
   C              0.074004942675308       0.926204087250128       0.497723856815238
   C             -0.000256785337383       0.888907516285452       0.497682123932496
   C              0.184822126985048       0.036558314236764       0.497701598703095
   C              0.110717182346550      -0.000427565019360       0.497931786988270
   C              0.184991961374291       0.147963823672802       0.499098539677365
   C              0.110685478172313       0.110797146115538       0.498445855842754
   C              0.184749503588835       0.259089957692265       0.507128135417628
   C              0.110697247352735       0.221960716745558       0.501055815707682
   C              0.184769049232073       0.369826020848982       0.507014877784391
   C              0.110687926533336       0.332867254518832       0.500994367736707
   C              0.185038500677155       0.481219652526175       0.498981740895490
   C              0.110674729531353       0.444142950079583       0.498374948147407
   C              0.184896613670363       0.592653826124949       0.497606273727297
   C              0.110761474203844       0.555572998905081       0.497848421827129
   C              0.184891079482464       0.703833568879862       0.497182821932395
   C              0.110820765589002       0.666801187448308       0.497488041535274
   C              0.184933223471339       0.815065481051180       0.497187872063160
   C              0.110761814272535       0.777972599417185       0.497523345112684
   C              0.184849555193496       0.926049781626389       0.497265576780521
   C              0.110756004931209       0.888969967130267       0.497559214564932
   C              0.295922688037004       0.036468612300295       0.496790675721858
   C              0.221726534220546      -0.000561646631245       0.497232505943768
   C              0.295817172393614       0.147429112473062       0.497912696626782
   C              0.221820378221383       0.110646007356549       0.498023539266534
   C              0.296038990885583       0.258444991568424       0.508384682109796
   C              0.221800571029406       0.221745595846684       0.504149296118883
   C              0.296869023602966       0.370575548123975       0.525060374793018
   C              0.220905516302485       0.332560802151703       0.515597550943693
   C              0.296136294646907       0.481872906501360       0.508194522445099
   C              0.221869024974911       0.444317242224455       0.503974853135517
   C              0.296068317538472       0.592738082089893       0.497829295038862
   C              0.222012635048641       0.555531357728496       0.497920207524597
   C              0.296200140605056       0.704036905622258       0.496713333413251
   C              0.221997202443490       0.666862601321789       0.497138669087537
   C              0.296139956275250       0.815205025413150       0.496682903121233
   C              0.222047583937683       0.778138334056039       0.496976262176351
   C              0.296037958286660       0.926053986575564       0.496729132280082
   C              0.221919031395285       0.888944256190910       0.497025612306519
   C              0.407154170644270       0.036574467641715       0.496686281306621
   C              0.333039380801069      -0.000517688319357       0.496655278391645
   C              0.407052697978619       0.147421581009643       0.496825632316212
   C              0.332924503104711       0.110384417068495       0.496787969268778
   C              0.407098287389853       0.258651875868501       0.502225937699531
   C              0.332935324263798       0.221561776380244       0.502196012655657
   C              0.406586938136915       0.368556471502756       0.515319973304703
   C              0.333538312799417       0.331999281430923       0.515375858814088
   C              0.406663783605440       0.482435449454665       0.515111695443242
   C              0.333616847390917       0.445872947073795       0.515187089423518
   C              0.407363456330650       0.592942973800753       0.502095191989395
   C              0.333161610456949       0.555790195575117       0.502074973168535
   C              0.407471489556785       0.704202738018534       0.496800541045301
   C              0.333298589369020       0.667075118940316       0.496726989968941
   C              0.407470061669648       0.815337323523410       0.496631549119544
   C              0.333374526962169       0.778281990738986       0.496589095238354
   C              0.407417730088507       0.926281759842707       0.496658372959980
   C              0.333184001169797       0.889109022805797       0.496625090714745
   C              0.518510750467082       0.036741812704390       0.497131570794678
   C              0.444374437071926      -0.000396800846909       0.496790537041134
   C              0.518386790848862       0.147679340167101       0.497334910164021
   C              0.444185620334424       0.110508967663064       0.496853885780419
   C              0.518271284036012       0.258943384924499       0.498177845157641
   C              0.444199598770870       0.221727716679661       0.497997273536861
   C              0.518392681895775       0.370158823891600       0.504293531816179
   C              0.444071042055076       0.332555747444336       0.508409802540137
   C              0.519370256869773       0.481945949330519       0.515660880787792
   C              0.443328734027713       0.443892063084603       0.525090516490884
   C              0.518564347290923       0.592843982288139       0.504066706488918
   C              0.444243739754888       0.556020595744647       0.508155373260327
   C              0.518636444506266       0.704037033435996       0.498168496443809
   C              0.444556955133055       0.667117185811420       0.497962276646990
   C              0.518827732099895       0.815426796827352       0.497315140152685
   C              0.444615838808278       0.778409001637435       0.496819376529046
   C              0.518731026329298       0.926436829359460       0.497101779191130
   C              0.444584339652647       0.889363187217261       0.496754062919931
   C              0.629832680273785       0.036935216732445       0.497637779212827
   C              0.555613815365850      -0.000229201287096       0.497314359086227
   C              0.629637745430268       0.147843074873043       0.497669368656416
   C              0.555541812792003       0.110747583441051       0.497377545323343
   C              0.629614526467528       0.258998878603014       0.498082052331235
   C              0.555420857224196       0.221859563888578       0.497838433618197
   C              0.629700367293384       0.370408366462906       0.498674671783754
   C              0.555228719700741       0.333264487052469       0.499316540997960
   C              0.629712009808425       0.481671470609797       0.501193674565332
   C              0.555529554388014       0.444696436687068       0.507244284019051
   C              0.629765778027282       0.592674619363351       0.501106517448771
   C              0.555588569458572       0.555442797350521       0.507071093970100
   C              0.629897174182225       0.704022736935636       0.498656472835533
   C              0.555469988060933       0.666688729157893       0.499237425890541
   C              0.629979177991485       0.815397232566505       0.498101008596186
   C              0.555820472673604       0.778404070111281       0.497851600397872
   C              0.629987542806721       0.926394512948837       0.497651966801866
   C              0.555865131814426       0.889398626479482       0.497344951290885
   C              0.740946580087701       0.036965506274442       0.497743811147761
   C              0.666808354754081      -0.000126752892143       0.497717870674867
   C              0.740882014419113       0.147877814000824       0.497743123121060
   C              0.666768097975577       0.110814061416175       0.497727192959407
   C              0.740974063855777       0.259174297279128       0.497751056540543
   C              0.666685487210913       0.222033172932988       0.497835921177220
   C              0.740932289914617       0.370438612252144       0.497872635379764
   C              0.666747174197125       0.333343613565317       0.498242384186370
   C              0.740965693297269       0.481605194137911       0.497684699135004
   C              0.666803426049761       0.444524761537257       0.498633607617258
   C              0.741155834735510       0.592907897960280       0.498210009585644
   C              0.666877192373263       0.555771977574915       0.500378033460788
   C              0.740994538700070       0.704028887850513       0.497676081305760
   C              0.666878023882787       0.667003488183021       0.498590769193139
   C              0.741097241687545       0.815216344895361       0.497883007448302
   C              0.666982707655247       0.778232095595863       0.498263860342529
   C              0.741225691444095       0.926405740390247       0.497754609124460
   C              0.666955327195434       0.889330378478181       0.497836635090341
   C              0.852049551315165       0.036900177417248       0.497498225518274
   C              0.777901965962230      -0.000209863958583       0.497670199948975
   C              0.852075012322496       0.147934887888691       0.497509329312682
   C              0.777827497567163       0.110837149158513       0.497695947966544
   C              0.852110262686794       0.259165399767493       0.497478912398319
   C              0.777990239081491       0.222173085526964       0.497663325651378
   C              0.852232328057351       0.370371341801390       0.497560322289997
   C              0.778093092347686       0.333358533938352       0.497704132088311
   C              0.852344147366877       0.481713061846610       0.497555902832068
   C              0.778093908736984       0.444620140118423       0.497613657044745
   C              0.852333159856399       0.592967219245151       0.497533344860860
   C              0.778255493940921       0.555925741362841       0.497655991770543
   C              0.852302526099869       0.704069205478015       0.497532968281602
   C              0.778247942066922       0.667049911605184       0.497647559243335
   C              0.852309145621512       0.815255549211355       0.497556503657897
   C              0.778117599078209       0.778195434648381       0.497614867058635
   C              0.852233838822605       0.926374155383089       0.497567616386663
   C              0.778146349075264       0.889323645922237       0.497709102114213
   C              0.963148048191166       0.037076488021144       0.497462290908009
   C              0.888953578081838      -0.000196812097162       0.497477461214594
   C              0.962907289800342       0.147914311016761       0.497459987611198
   C              0.888968387397364       0.110881297250289       0.497392249160704
   C              0.962998668984034       0.258979848379421       0.497436249524271
   C              0.889049559961122       0.222043611202561       0.497374376461001
   C              0.963270088650459       0.370334448606790       0.497430253493969
   C              0.889119023591563       0.333306391402392       0.497456057788178
   C              0.963296817575551       0.481652472295441       0.497595304641707
   C              0.889245102443489       0.444646365234840       0.497557980752100
   C              0.963350894545455       0.592871436481270       0.497642093259845
   C              0.889309890182987       0.555816523933496       0.497566333185873
   C              0.963407445673993       0.704152704559725       0.497726280484290
   C              0.889267904129096       0.667036783333872       0.497625318466402
   C              0.963304962171249       0.815281604746574       0.497668823427617
   C              0.889283873975493       0.778218444740292       0.497572077240772
   C              0.963177836823551       0.926193956497057       0.497623588781327
   C              0.889106210393902       0.889067512952079       0.497565326473620
%ENDBLOCK positions_frac

FIX_COM : false

%BLOCK species_gamma
   radsectesla
   H          267522128.0    
%ENDBLOCK species_gamma

%BLOCK species_pot
   H       1|0.8|14|16|19|10N(qc=8)
   C       1|1.2|17|20|23|20N:21L(qc=8)
%ENDBLOCK species_pot

SYMMETRY_TOL :     0.001000

%BLOCK symmetry_ops
# Symm. op. 1       E
          1.000000000000000       0.000000000000000       0.000000000000000
          0.000000000000000       1.000000000000000       0.000000000000000
          0.000000000000000       0.000000000000000       1.000000000000000
          0.000000000000000       0.000000000000000       0.000000000000000
%ENDBLOCK symmetry_ops

kpoint_mp_grid :    1   1   1

