# CELL file written 15:16:24 (GMT+1.0) 28th October 2022 from run 4x4

%BLOCK lattice_cart
   ANG
       9.88000000000000        0.00000000000000        0.00000000000000    
      -4.94000000000000        8.55633100000000        0.00000000000000    
       0.00000000000000        0.00000000000000        20.0339000000000    
%ENDBLOCK lattice_cart

%BLOCK cell_constraints
      0   0   0
      0   0   0
%ENDBLOCK cell_constraints

%BLOCK positions_frac
   H              0.458180394781144       0.416665486964258       0.564283448076189
   C              0.165364370876515       0.081782766210846       0.500259210186496
   C             -0.000689032153455      -0.000538972792491       0.496474611464572
   C              0.166040460040720       0.332692258955236       0.501669186104768
   C              0.000615773550962       0.250691011123949       0.497183046624035
   C              0.166397180020262       0.582609534043863       0.497199742583284
   C             -0.000553518050585       0.499356901986312       0.496269614183996
   C              0.166153104107406       0.833081773399963       0.495920261588971
   C             -0.001320677876274       0.749480286574787       0.496316948098495
   C              0.416031002038983       0.081755254983471       0.500277769748782
   C              0.249029048233045      -0.001639308771181       0.498101879702590
   C              0.414767059055934       0.329928871998387       0.508729960052074
   C              0.246665378770468       0.247200516435708       0.504520359696903
   C              0.416093693622216       0.586177936954165       0.504567043448792
   C              0.250060859587806       0.500638663122931       0.501716389396615
   C              0.416390029937268       0.833881266850494       0.496462190095408
   C              0.250331934411641       0.749567618455261       0.496316577881634
   C              0.666092287000406       0.083808485111632       0.496337421727932
   C              0.500036484586716      -0.000501654453604       0.496451991920524
   C              0.666323701548193       0.332728562156678       0.501705636107259
   C              0.500297183659557       0.247182832455780       0.504565454910525
   C              0.669708365618642       0.586143011200489       0.504546788341072
   C              0.501605062067244       0.503419724415806       0.508736643424553
   C              0.667383311913810       0.834993034788860       0.498100990067725
   C              0.500377925880804       0.751618846038798       0.500273335596854
   C              0.917734347405404       0.083871584535245       0.496342990111323
   C              0.750261307185799       0.000285342791611       0.495969889315603
   C              0.916954694801011       0.334006281670755       0.496291769852384
   C              0.750007912835358       0.250758124463256       0.497206692797520
   C              0.915770753959876       0.582663144065053       0.497166929212532
   C              0.750351832359835       0.500665708411512       0.501682827817313
   C              0.917083098941674       0.833873013322468       0.496483103502647
   C              0.751027110444232       0.751562609913066       0.500266104026137
%ENDBLOCK positions_frac

FIX_COM : false

%BLOCK species_gamma
   radsectesla
   H          267522128.0    
%ENDBLOCK species_gamma

%BLOCK species_pot
   H       1|0.8|14|16|19|10N(qc=8)
   C       1|1.2|17|20|23|20N:21L(qc=8)
%ENDBLOCK species_pot

SYMMETRY_TOL :     0.001000

%BLOCK symmetry_ops
# Symm. op. 1       E
          1.000000000000000       0.000000000000000       0.000000000000000
          0.000000000000000       1.000000000000000       0.000000000000000
          0.000000000000000       0.000000000000000       1.000000000000000
          0.000000000000000       0.000000000000000       0.000000000000000
%ENDBLOCK symmetry_ops

kpoint_mp_grid :    4   4   1

