# CELL file written 00:02:32 (GMT+1.0) 28th October 2022 from run 9x9

%BLOCK lattice_cart
   ANG
       22.2300000000000        0.00000000000000        0.00000000000000    
      -11.1150000000000        19.2517450000000        0.00000000000000    
       0.00000000000000        0.00000000000000        20.0340000000000    
%ENDBLOCK lattice_cart

%BLOCK cell_constraints
      0   0   0
      0   0   0
%ENDBLOCK cell_constraints

%BLOCK positions_frac
   H              0.446946089633073       0.445728804853223       0.588278894184795
   H              0.293393134750505       0.368945971284016       0.588227340364609
   C              0.073980359603503       0.037121058714973       0.498119934615255
   C             -0.000028604668528       0.000085867263241       0.497579882011853
   C              0.073664663551488       0.147842127269078       0.498731084765820
   C             -0.000342502484861       0.110786513339170       0.497574365380284
   C              0.073571682546543       0.258955564889757       0.499297147275849
   C             -0.000645227148643       0.221784352118186       0.497682831296863
   C              0.073613211492083       0.370160189907196       0.498689269387568
   C             -0.000382710511563       0.333119550655284       0.497536327356357
   C              0.073821789321943       0.481204165441267       0.498062533948963
   C             -0.000188695185009       0.444221149847784       0.497549121408573
   C              0.074026536325632       0.592592023786227       0.497612172804721
   C             -0.000208476367824       0.555466014138488       0.497599804573965
   C              0.073948489366237       0.703882577040053       0.497681622491948
   C             -0.000016379982704       0.666825649802984       0.497759807333441
   C              0.073978452580162       0.815033424253471       0.497712207095667
   C             -0.000001297484635       0.777920975332531       0.497779663512650
   C              0.074090274430211       0.926257198823495       0.497680211047172
   C             -0.000180734995778       0.889023306888477       0.497636990191322
   C              0.185040289723912       0.036816490578625       0.497892103033576
   C              0.110950980325239      -0.000150705307243       0.497958144900523
   C              0.185256059568221       0.148415318938467       0.501093951978002
   C              0.110682911273699       0.110961551487913       0.499256774678503
   C              0.184540451194761       0.259335080958721       0.505769148859396
   C              0.110494641561966       0.222023666300143       0.500401978861062
   C              0.184518597161671       0.369601851511121       0.505734155137153
   C              0.110465996272193       0.332827775197269       0.500377553924481
   C              0.185200409389425       0.481224877464564       0.500995628512418
   C              0.110585641872911       0.444078750991609       0.499192355155299
   C              0.185022062060990       0.592642791511193       0.497777574238886
   C              0.110824678133955       0.555533689008312       0.497873614351892
   C              0.184992342409552       0.703799236200936       0.497151373214866
   C              0.110919784364361       0.666694907832108       0.497497206535646
   C              0.185134085375737       0.815091517465576       0.497278646004204
   C              0.110867076492799       0.777927888839595       0.497625124600352
   C              0.185012778472905       0.926080556451957       0.497225532784321
   C              0.110994871543499       0.889182327358964       0.497560367884720
   C              0.296114086744962       0.036718701135153       0.496789858893843
   C              0.221938479907380      -0.000206507757271       0.497170186229072
   C              0.295993306613365       0.147724604187562       0.498749773471907
   C              0.222122009321265       0.110944769097329       0.499103304145925
   C              0.296383800598661       0.258866876267359       0.506459304772347
   C              0.221919190490208       0.221773240148782       0.505379956495894
   C              0.295462186464701       0.369957861714570       0.532277983621296
   C              0.220082126567843       0.332249515286768       0.511552515807291
   C              0.296387153039639       0.481960818881428       0.506356953684411
   C              0.221895612541999       0.444553082814952       0.505293624715617
   C              0.296051385673914       0.592723890240799       0.498622381305264
   C              0.222138212057036       0.555585218514473       0.498975763133356
   C              0.296255605747905       0.703933041467199       0.496688694434726
   C              0.221974935602018       0.666694933936787       0.497068208241203
   C              0.296234323465703       0.815130766714392       0.496646074497347
   C              0.222089075430796       0.778031187942561       0.497011200094155
   C              0.296192763847732       0.926001397627079       0.496690242511704
   C              0.222118704488065       0.889074649724169       0.497055536938371
   C              0.407161698177089       0.036678398166199       0.496583169653347
   C              0.333151635192738      -0.000233454662149       0.496550246546687
   C              0.407258901828036       0.147735026231142       0.497267201934547
   C              0.333050613457549       0.110627580455914       0.497242340815766
   C              0.407290533704291       0.258982454145305       0.501399195521545
   C              0.333117417878707       0.221884913781627       0.501394142741636
   C              0.406177045178973       0.368309222345156       0.514681616477032
   C              0.334274701344456       0.332340904906162       0.514674289781989
   C              0.406193575291833       0.482340179099017       0.514629616996582
   C              0.334283369464697       0.446384655220232       0.514607996838566
   C              0.407356567669917       0.592803588348743       0.501343831643440
   C              0.333166532229169       0.555690427239544       0.501289103460658
   C              0.407419507004434       0.704057127693908       0.497187849478018
   C              0.333189315740808       0.666910987490319       0.497126316694389
   C              0.407397641204961       0.815104735153902       0.496515056083410
   C              0.333304243136728       0.778047230286112       0.496478940446041
   C              0.407446611705282       0.926111133492446       0.496646203979748
   C              0.333237162464332       0.889108216832230       0.496599468001132
   C              0.518363996821040       0.036689638125249       0.497166292994948
   C              0.444293862332233      -0.000252808707775       0.496770961483130
   C              0.518459638396673       0.147933171829472       0.497268560378832
   C              0.444185509398379       0.110717901564686       0.496844818991510
   C              0.518310553486818       0.259054902973338       0.499175926932606
   C              0.444392772424563       0.221922158173581       0.498782074955404
   C              0.518547579306031       0.370108082455327       0.505485054594186
   C              0.444059725729451       0.332715196277587       0.506467519527863
   C              0.520366188439554       0.482426486591475       0.511694642346270
   C              0.444967922244701       0.444720658002082       0.532326020613662
   C              0.518586616983196       0.592948128203016       0.505494043793520
   C              0.444102229048374       0.555831023912808       0.506429843441146
   C              0.518424812586208       0.703804268688804       0.499185233590138
   C              0.444510228927479       0.666982741512806       0.498745407477421
   C              0.518676125083246       0.815111823237497       0.497227949302526
   C              0.444403294867486       0.778029309179628       0.496776305843029
   C              0.518562585419327       0.926137655093575       0.497122196016339
   C              0.444493471602041       0.889213628362637       0.496724370489782
   C              0.629604045059623       0.036777688330079       0.497740323970920
   C              0.555390295060126      -0.000225673165999       0.497393506244837
   C              0.629530047887039       0.147928140523923       0.497695107289119
   C              0.555439036313440       0.110838091040211       0.497354698427062
   C              0.629644071893813       0.259090007345139       0.498098632992150
   C              0.555416141231936       0.221979961821515       0.497989149121404
   C              0.629892041070307       0.370559302687662       0.499422557753478
   C              0.555247890595166       0.333425938661927       0.501210223865962
   C              0.630000496285098       0.481829397224124       0.500612363365627
   C              0.555920484508558       0.445062756931257       0.505923057037800
   C              0.630003816879692       0.592676663761696       0.500612818359244
   C              0.555932447055167       0.555352408251693       0.505930889427488
   C              0.629934443265005       0.703868599297410       0.499449529165145
   C              0.555308447536192       0.666341008361822       0.501239241314887
   C              0.629777764568364       0.815137914991902       0.498110493218973
   C              0.555576756147230       0.778000391251380       0.497987782681434
   C              0.629682608228801       0.926020678520600       0.497664819197958
   C              0.555677939471556       0.889146187667679       0.497306725372769
   C              0.740699329107592       0.036789971886622       0.497783896949803
   C              0.666615754031596      -0.000172305090202       0.497789675523129
   C              0.740731860820762       0.147852375176790       0.497784734019174
   C              0.666576256066768       0.110776308800555       0.497806913152093
   C              0.740947250009401       0.259250002991570       0.497728143001151
   C              0.666507883359632       0.222059333891392       0.497817684857189
   C              0.740920928999448       0.370510797951686       0.497756290142992
   C              0.666720130083360       0.333453862984023       0.498287543787341
   C              0.741108141123008       0.481607423237370       0.497790510434186
   C              0.666925315085485       0.444511113436458       0.498936581943284
   C              0.741361835982640       0.592945913017535       0.497925626718600
   C              0.666966001430485       0.555737811289584       0.499524510985016
   C              0.741085452958014       0.704015317359820       0.497784160289942
   C              0.666924636417091       0.666922162630730       0.498936476864310
   C              0.740936214928506       0.814954486873547       0.497756790449714
   C              0.666775295584764       0.777807835185317       0.498310205670484
   C              0.740980117630166       0.926113776971076       0.497721036726223
   C              0.666648209996208       0.888981622758006       0.497805889113922
   C              0.851889753745682       0.036699811220083       0.497454857637395
   C              0.777797472349825      -0.000260156088634       0.497660477818231
   C              0.851997752810988       0.147971666192505       0.497433048565626
   C              0.777636838664692       0.110758780064733       0.497699994844802
   C              0.851963612697093       0.259241351220266       0.497431503612007
   C              0.777820639934285       0.222124862946284       0.497654656224588
   C              0.852102273318336       0.370375256637342       0.497492551527444
   C              0.777946517483086       0.333275762815605       0.497628895740409
   C              0.852383475853752       0.481746215389077       0.497507739472244
   C              0.777993356743241       0.444531545798725       0.497604436075843
   C              0.852365809405652       0.592957761948566       0.497472866975429
   C              0.778245822794167       0.555868682383379       0.497592155542418
   C              0.852340163613075       0.703964894718310       0.497476993674394
   C              0.778223287075444       0.666902849820762       0.497591351227005
   C              0.852287149541589       0.815118640803387       0.497498189839571
   C              0.777940277067125       0.777964880198647       0.497595918042128
   C              0.851970570672602       0.926099916888427       0.497487804009411
   C              0.777925583401307       0.889166387555227       0.497619904635365
   C              0.963097106490405       0.036980560693173       0.497419956768897
   C              0.888843932172905      -0.000209928001402       0.497399711036707
   C              0.962841321568499       0.147989632701312       0.497379987653886
   C              0.888864492801817       0.110892242579930       0.497325470825768
   C              0.962856846700683       0.259037590929515       0.497357341352785
   C              0.888896154730269       0.221971274511912       0.497304759012605
   C              0.963129526509546       0.370387677139647       0.497387341960252
   C              0.888911995140516       0.333229249225298       0.497379856131759
   C              0.963182377611237       0.481643372787315       0.497505176579836
   C              0.889194473190388       0.444609357442240       0.497495749961013
   C              0.963297579960244       0.592755710176688       0.497642116074040
   C              0.889318878811296       0.555710897965869       0.497539170495422
   C              0.963445922040668       0.704082327653880       0.497748310530977
   C              0.889255839885704       0.666928377219017       0.497558935642718
   C              0.963256725250802       0.815185558541060       0.497663122609753
   C              0.889266456762684       0.778156812449252       0.497541228306580
   C              0.963013042643460       0.925973968246972       0.497522823174619
   C              0.889028580013095       0.889012832481774       0.497489910640426
%ENDBLOCK positions_frac

FIX_COM : false

%BLOCK species_gamma
   radsectesla
   H          267522128.0    
%ENDBLOCK species_gamma

%BLOCK species_pot
   H       1|0.6|13|15|17|10(qc=8)
   C       1|1.2|17|20|23|20N:21L(qc=8)
%ENDBLOCK species_pot

SYMMETRY_TOL :     0.001000

%BLOCK symmetry_ops
# Symm. op. 1       E
          1.000000000000000       0.000000000000000       0.000000000000000
          0.000000000000000       1.000000000000000       0.000000000000000
          0.000000000000000       0.000000000000000       1.000000000000000
          0.000000000000000       0.000000000000000       0.000000000000000
%ENDBLOCK symmetry_ops

kpoint_mp_grid :    1   1   1

