# CELL file written 16:27:48 (GMT+1.0) 28th October 2022 from run 9x9

%BLOCK lattice_cart
   ANG
       22.2300000000000        0.00000000000000        0.00000000000000    
      -11.1150000000000        19.2517450000000        0.00000000000000    
       0.00000000000000        0.00000000000000        20.0340000000000    
%ENDBLOCK lattice_cart

%BLOCK cell_constraints
      0   0   0
      0   0   0
%ENDBLOCK cell_constraints

%BLOCK positions_frac
   H              0.421513726644149       0.402982818566955       0.627724730388255
   C              0.073880574728451       0.036771045794188       0.499338146353534
   C             -0.000060220667825      -0.000125904094254       0.499392682431842
   C              0.073795678793957       0.147857658348417       0.499552288494512
   C             -0.000213573599093       0.110837561128400       0.499546624693755
   C              0.073713688133280       0.258974899058480       0.499816754595021
   C             -0.000194144694876       0.221977494917626       0.499696326601074
   C              0.073725382647752       0.370186931307644       0.499534719112707
   C             -0.000276856689806       0.333132897886527       0.499543554967059
   C              0.073711672691316       0.481413663344382       0.499328095717869
   C             -0.000223048252105       0.444362113805707       0.499396314071285
   C              0.073802860475723       0.592631908834930       0.499367759580730
   C             -0.000149546313852       0.555576585976176       0.499385007470825
   C              0.073877869524882       0.703846421002142       0.499460641996793
   C             -0.000076739916620       0.666788629210847       0.499415777028709
   C              0.073906152359104       0.815008049683899       0.499458378240541
   C             -0.000068645153063       0.777934580006038       0.499412178293044
   C              0.073867127278560       0.926020803869053       0.499361822670575
   C             -0.000123628982126       0.889006079582100       0.499375997796303
   C              0.184907663974161       0.036642123594677       0.499266423720691
   C              0.110880124947089      -0.000261658414124       0.499304362010546
   C              0.184904082874237       0.147807374122836       0.499488882927727
   C              0.110853975923057       0.110837058269905       0.499415710667736
   C              0.184918976579822       0.258948116648677       0.500223920613391
   C              0.110845530243150       0.221960733466725       0.499825980060790
   C              0.184860750613602       0.370256904369412       0.500160654021421
   C              0.110787336179185       0.333138895716436       0.499802508218809
   C              0.184796881759031       0.481405318346267       0.499405025594992
   C              0.110710038156241       0.444292910237459       0.499383880146644
   C              0.184875260322481       0.592648870341810       0.499234487715206
   C              0.110739248718274       0.555518101313572       0.499295653371790
   C              0.184946066635159       0.703860455292906       0.499369626556928
   C              0.110843570273637       0.666749352731917       0.499412471464468
   C              0.185012232643501       0.815024956153369       0.499458862706243
   C              0.110897627429565       0.777946165293744       0.499481364040253
   C              0.184975476924817       0.925975703793635       0.499372304065102
   C              0.110912227701049       0.889064282674850       0.499409946120851
   C              0.295992216213394       0.036601178320741       0.499267249812925
   C              0.221947088228763      -0.000328648148625       0.499282708742714
   C              0.296000766065158       0.147698828513536       0.499522815077907
   C              0.221936944929580       0.110698928733448       0.499358227053845
   C              0.296081327005116       0.258912071925207       0.500281968083597
   C              0.221939238604062       0.221906029158638       0.499945380028182
   C              0.295996107611474       0.370189171402023       0.501357482820265
   C              0.222184811349038       0.333263942658475       0.500794918548755
   C              0.296016696033127       0.481554827887994       0.500269560490687
   C              0.221840697184974       0.444336778444492       0.499829671220049
   C              0.295996137395908       0.592714845475333       0.499379113638082
   C              0.221901980860634       0.555575114687098       0.499273747900531
   C              0.296123112382451       0.703891302871483       0.499232390665006
   C              0.221981020041774       0.666778613646183       0.499259689223631
   C              0.296210242900309       0.815074065586067       0.499362811342657
   C              0.222065020084118       0.777986319323242       0.499410368224049
   C              0.296177260380334       0.926000072936484       0.499366615341447
   C              0.222096863536202       0.889082281524687       0.499412490656005
   C              0.407173529410287       0.036616530782918       0.499340271938214
   C              0.333107768938565      -0.000315861902589       0.499308265238361
   C              0.407182165329797       0.147744810241231       0.499475417087363
   C              0.333030509519233       0.110660847226364       0.499353661236538
   C              0.407147844892568       0.258904765515303       0.500239182404724
   C              0.333098851815971       0.221888827596700       0.500099084741563
   C              0.406986318473812       0.369619044170929       0.502116407737700
   C              0.333275704621528       0.333063214202314       0.500599609039949
   C              0.406899655087820       0.481833875873210       0.504770283753559
   C              0.333248868666893       0.444633575002831       0.501725227371343
   C              0.407168193668644       0.592699518583006       0.500392777395417
   C              0.333096678293249       0.555626758017118       0.499933867522321
   C              0.407324831212507       0.703922586676509       0.499414522131074
   C              0.333143731511858       0.666814731617819       0.499275728900248
   C              0.407398728087286       0.815110913492153       0.499325191850652
   C              0.333264268101669       0.778036106556980       0.499291998401834
   C              0.407374709035381       0.926039025804996       0.499385938560447
   C              0.333318287304983       0.889127084690665       0.499379490923705
   C              0.518406969494932       0.036704270709430       0.499481732210749
   C              0.444325468775546      -0.000239470210075       0.499396521398302
   C              0.518374501360888       0.147818653211054       0.499542716836825
   C              0.444239775075954       0.110723800714228       0.499410246487604
   C              0.518354465471479       0.258980110287152       0.500186304005736
   C              0.444267281530617       0.221880032807315       0.499910744407195
   C              0.518556660738286       0.370235926057902       0.501448756362232
   C              0.444132036135347       0.333074211381544       0.500609404643014
   C              0.519333068640912       0.481862722591835       0.504951933583260
   C              0.444300189798048       0.444242718799137       0.515811537941739
   C              0.518585799761314       0.592754646110694       0.502576779536420
   C              0.444129831779203       0.555498164524214       0.502532003604113
   C              0.518472343113113       0.703854976602972       0.500211957345004
   C              0.444381474878471       0.666859848762362       0.499881783438633
   C              0.518585435739156       0.815059468024435       0.499537381558578
   C              0.444452869782836       0.778025994204402       0.499385296449133
   C              0.518587950036577       0.926069982500254       0.499481512195084
   C              0.444513296631073       0.889147787446934       0.499392901526139
   C              0.629625993975820       0.036753455906946       0.499645678430057
   C              0.555571650597403      -0.000177576890414       0.499543445762639
   C              0.629622257634603       0.147864045465690       0.499650901887306
   C              0.555472985184805       0.110777296981117       0.499545021551710
   C              0.629663562831679       0.259085561649912       0.499800452006426
   C              0.555445150263117       0.221994045420215       0.499803882528560
   C              0.629798078678672       0.370386408847057       0.500145825535953
   C              0.555442992952004       0.333325811479344       0.500772617881401
   C              0.629966190362611       0.481647946947224       0.500302827616561
   C              0.555788410442421       0.444689107645623       0.501875295480673
   C              0.629968325821827       0.592735140036239       0.500423860707974
   C              0.555790935835005       0.555521581403197       0.502579699439702
   C              0.629845333521901       0.703856148261166       0.500220472885982
   C              0.555503860189337       0.666559731101583       0.500970931245515
   C              0.629798672358824       0.815075386957904       0.499819141061309
   C              0.555601899618081       0.777938099050706       0.499808830844886
   C              0.629751678348973       0.926077834053531       0.499656542664860
   C              0.555697173088804       0.889153517252154       0.499546251008851
   C              0.740868776606751       0.036802973592115       0.499725675463096
   C              0.666771081059421      -0.000161570712855       0.499685820519620
   C              0.740882303960552       0.147942684307562       0.499724634669513
   C              0.666717871050866       0.110851878010549       0.499683927390094
   C              0.740934161524822       0.259170355078504       0.499649222136198
   C              0.666704005090161       0.222076291847333       0.499689668463322
   C              0.740967560713570       0.370388938611100       0.499528564822839
   C              0.666776680242084       0.333300488596196       0.499786892812582
   C              0.741093783734143       0.481589659606278       0.499410588572273
   C              0.666946290690649       0.444478052550527       0.499832109863327
   C              0.741206295550943       0.592821495234814       0.499398900052589
   C              0.666991644455545       0.555711085865613       0.499962228756895
   C              0.741063510399400       0.703931208803574       0.499430329696313
   C              0.666938724343004       0.666878333338479       0.499899365150801
   C              0.740969525085783       0.815038026955584       0.499543107036996
   C              0.666831480679217       0.777930303834307       0.499813431312605
   C              0.740939294685512       0.926089092956269       0.499657116970020
   C              0.666823678006217       0.889066411745998       0.499700730154205
   C              0.852082333608055       0.036829211282347       0.499644028831677
   C              0.777969598765234      -0.000140698217551       0.499684980779598
   C              0.852103422315869       0.147992730832110       0.499724678749863
   C              0.777954763697500       0.110890139864923       0.499742312886543
   C              0.852143234148566       0.259226563488631       0.499644936625698
   C              0.777976293547417       0.222100800796487       0.499683553742705
   C              0.852171189891831       0.370421299765731       0.499481625599581
   C              0.778044932157439       0.333312757400140       0.499541136356230
   C              0.852274043364798       0.481645643375358       0.499332387516130
   C              0.778104745894572       0.444522734278019       0.499385304315864
   C              0.852305880712594       0.592842508086349       0.499245880232934
   C              0.778195989651290       0.555749037085279       0.499287966041276
   C              0.852268824980705       0.703959223309504       0.499245401372376
   C              0.778172377918948       0.666888511529153       0.499293459563884
   C              0.852150494151325       0.815036198350115       0.499331348618857
   C              0.778037101438150       0.777997927781136       0.499394325659045
   C              0.852001170623370       0.926047682515218       0.499480702191306
   C              0.777984604488251       0.889131399702202       0.499548161652886
   C              0.963119583693878       0.036920133056753       0.499477841884640
   C              0.889107199467877      -0.000127307099530       0.499540459829211
   C              0.963112449462987       0.148003452008148       0.499653091664567
   C              0.889127284177281       0.110932321965512       0.499683278741219
   C              0.963118591429079       0.259199418289399       0.499653483078638
   C              0.889152285490574       0.222128445197809       0.499684271816900
   C              0.963131267899123       0.370374796086439       0.499482433125538
   C              0.889158815146493       0.333317179472372       0.499543422723678
   C              0.963180969277740       0.481602671652490       0.499391578108612
   C              0.889210664854861       0.444542709452771       0.499397431547679
   C              0.963234285982261       0.592801374899010       0.499371415211383
   C              0.889287790050311       0.555741521856205       0.499302414589149
   C              0.963262072068667       0.703978791897676       0.499375349121813
   C              0.889287500404532       0.666919819086879       0.499270770480913
   C              0.963167093063996       0.815037428951285       0.499364655225016
   C              0.889210384156786       0.778028972774061       0.499298692869311
   C              0.962971457510682       0.925960964339250       0.499382590814856
   C              0.889011278013127       0.889023568279829       0.499392935345428
%ENDBLOCK positions_frac

FIX_COM : false

%BLOCK species_gamma
   radsectesla
   H          267522128.0    
%ENDBLOCK species_gamma

%BLOCK species_pot
   H       1|0.8|14|16|19|10N(qc=8)
   C       1|1.2|17|20|23|20N:21L(qc=8)
%ENDBLOCK species_pot

SYMMETRY_TOL :     0.001000

%BLOCK symmetry_ops
# Symm. op. 1       E
          1.000000000000000       0.000000000000000       0.000000000000000
          0.000000000000000       1.000000000000000       0.000000000000000
          0.000000000000000       0.000000000000000       1.000000000000000
          0.000000000000000       0.000000000000000       0.000000000000000
%ENDBLOCK symmetry_ops

kpoint_mp_grid :    1   1   1

