# CELL file written 15:33:55 (GMT+1.0) 27th October 2022 from run 9x9

%BLOCK lattice_cart
   ANG
       22.2300000000000        0.00000000000000        0.00000000000000    
      -11.1150000000000        19.2517450000000        0.00000000000000    
       0.00000000000000        0.00000000000000        20.0340000000000    
%ENDBLOCK lattice_cart

%BLOCK cell_constraints
      0   0   0
      0   0   0
%ENDBLOCK cell_constraints

%BLOCK positions_frac
   H              0.400856795565534       0.365647381970152       0.649652656649097
   C              0.073938804388920       0.036878251032185       0.500001990446324
   C             -0.000021516842024      -0.000050150961133       0.500000881803652
   C              0.073788784003532       0.147912879247663       0.500000610617317
   C             -0.000188093809287       0.110899566036102       0.500000135773344
   C              0.073730478419181       0.259013771739800       0.500000626665791
   C             -0.000245947433204       0.221977538948403       0.500000131679619
   C              0.073742294142833       0.370177675019905       0.500001878337182
   C             -0.000228946229326       0.333143669947062       0.500000831281644
   C              0.073778354146039       0.481374586614476       0.500000679609568
   C             -0.000186154294934       0.444340920955682       0.500000714421657
   C              0.073828656839638       0.592586057525330       0.500000618748249
   C             -0.000136209187907       0.555542436079907       0.500000654009173
   C              0.073875509020707       0.703801497804502       0.500000635394703
   C             -0.000095611300781       0.666737716035774       0.500000667064560
   C              0.073905613780017       0.814996223435390       0.500000627476912
   C             -0.000079437311423       0.777899849720932       0.500000650416213
   C              0.073893256581883       0.926028639829780       0.500000714793024
   C             -0.000106597797361       0.888989081148019       0.500000736626222
   C              0.184956507302010       0.036738854776041       0.499999586412511
   C              0.110934884699004      -0.000169302907375       0.500000617557843
   C              0.184957417982216       0.147912187343922       0.500001096337144
   C              0.110864923178536       0.110899479205905       0.500003086874554
   C              0.184908628842299       0.259047778604803       0.500019500569816
   C              0.110783567248120       0.221985998304780       0.500006790117675
   C              0.184888611637244       0.370191765263845       0.500000979655049
   C              0.110755406060505       0.333113091688843       0.500003093358296
   C              0.184906691414681       0.481384076579991       0.499999529978911
   C              0.110771661891833       0.444288674458330       0.500000547742637
   C              0.184945349479911       0.592599835082649       0.500001020077049
   C              0.110811009153684       0.555493977982167       0.500000764128291
   C              0.184994351683872       0.703819587052483       0.500000611947153
   C              0.110861931109617       0.666709108070944       0.500000641275792
   C              0.185038885200830       0.815019442582695       0.500000622600371
   C              0.110904171832389       0.777922437214898       0.500000643884641
   C              0.185010127084208       0.926015206234274       0.500001064906136
   C              0.110929313183486       0.889061367824296       0.500000804627224
   C              0.296054337244842       0.036698325119794       0.499999588177951
   C              0.221993129003121      -0.000249632107391       0.500000987766433
   C              0.296106591481220       0.147896282240845       0.500022024715728
   C              0.221981990809568       0.110813983394353       0.500004553114510
   C              0.296136276452265       0.259109493979982       0.499920272081370
   C              0.222006653922059       0.222021470178244       0.499984592685092
   C              0.296132771118508       0.370226361088871       0.499920513309745
   C              0.221983521214317       0.333163991320194       0.499984320401690
   C              0.296146685890122       0.481412148835175       0.500021950250679
   C              0.221977974153814       0.444333166722468       0.500004202040093
   C              0.296162603631273       0.592640761151367       0.499999537345422
   C              0.221998965070390       0.555536994806292       0.500000988471790
   C              0.296208273992732       0.703871625362348       0.500000704990700
   C              0.222045205608542       0.666755635792326       0.500000771407385
   C              0.296250098329448       0.815064151836333       0.500000664855234
   C              0.222095718793048       0.777967756202552       0.500000633840654
   C              0.296205696181042       0.926035340491757       0.500000735286792
   C              0.222120259220362       0.889088322479082       0.500000805904404
   C              0.407216814464598       0.036707278256109       0.500001692435628
   C              0.333144809600311      -0.000240438192987       0.500000663713763
   C              0.407243062453084       0.147853627644139       0.500001970691987
   C              0.333109846278701       0.110772250680176       0.500004253441928
   C              0.407306576003764       0.259109682072933       0.499931938895166
   C              0.333169570323020       0.222018371170631       0.500010181164687
   C              0.407321996516048       0.370274210521291       0.500321703952358
   C              0.333174725074117       0.333189768363370       0.499961583151450
   C              0.407356071223501       0.481443644141236       0.499935707149724
   C              0.333206432433829       0.444359094262701       0.500013023272245
   C              0.407379233121000       0.592677999422078       0.500002196298686
   C              0.333220662958164       0.555572304348992       0.500003904150178
   C              0.407426082639923       0.703915877362100       0.500001619336384
   C              0.333263549665116       0.666803512577717       0.500000626836124
   C              0.407470396953154       0.815115630264585       0.500000524669444
   C              0.333314342318498       0.778016800605161       0.500000680313101
   C              0.407417740055184       0.926082924515470       0.500000551240590
   C              0.333330111284000       0.889132075743824       0.500000701984582
   C              0.518414183367278       0.036744836003976       0.500000712287482
   C              0.444336292409537      -0.000202449143937       0.500000810003650
   C              0.518434487531840       0.147868746118359       0.500000577307050
   C              0.444281299965944       0.110777198081716       0.500002647432272
   C              0.518472360680297       0.259085381636530       0.500016081823012
   C              0.444327536075334       0.222000868133097       0.499990627421435
   C              0.518475006606933       0.370277677563531       0.499931493246068
   C              0.444373075233870       0.333206063957013       0.499934632591643
   C              0.518501794969446       0.481470431357390       0.499934808323844
   C              0.444398809063222       0.444405796500529       0.499928160633439
   C              0.518569826381571       0.592700507656196       0.500014992885753
   C              0.444423615517225       0.555593301619191       0.499991829882684
   C              0.518628862200731       0.703947059450494       0.500000587669218
   C              0.444470007494076       0.666833674979130       0.500002596353727
   C              0.518675974902016       0.815161747944449       0.500000715207088
   C              0.444527406470666       0.778064962197568       0.500000758123529
   C              0.518625025891773       0.926132371331791       0.500000714416022
   C              0.444546461961170       0.889183090672087       0.500000564510283
   C              0.629630020332154       0.036798162741873       0.500000644480592
   C              0.555544672508583      -0.000152832083404       0.500000712773173
   C              0.629646302992866       0.147907922318386       0.500000917600832
   C              0.555491009336614       0.110814284827718       0.500000275851533
   C              0.629689997991158       0.259117767513052       0.500000623587002
   C              0.555527591393857       0.222012104722671       0.500005053380265
   C              0.629720411953612       0.370329234543619       0.500001844499422
   C              0.555558222207729       0.333232440274908       0.499988540017761
   C              0.629716238275869       0.481509528116641       0.500021679337234
   C              0.555577373938153       0.444420658026832       0.500020757202756
   C              0.629760673516390       0.592715510799989       0.500002218547932
   C              0.555613967004636       0.555617461128950       0.499990034414000
   C              0.629804215990396       0.703949116925100       0.500000608825026
   C              0.555659982562729       0.666852397793273       0.500004559566957
   C              0.629857838824432       0.815180223955865       0.500000910959080
   C              0.555723163416711       0.778094511935185       0.500000310777267
   C              0.629818458482517       0.926175222534759       0.500000659316206
   C              0.555746194678862       0.889229136386408       0.500000709052906
   C              0.740842864532352       0.036842241135537       0.500000645106446
   C              0.666758505229386      -0.000103258283676       0.500000616586792
   C              0.740865548422210       0.147960900264525       0.500000636258196
   C              0.666710757252489       0.110864127866839       0.500000733843954
   C              0.740915337807956       0.259170532907593       0.500000685173182
   C              0.666752390647318       0.222056343299871       0.500000232015737
   C              0.740958104154213       0.370383245788728       0.500001653146779
   C              0.666796092599625       0.333275702423833       0.500003031409456
   C              0.740983985319294       0.481579356462226       0.499999359215538
   C              0.666823461140983       0.444477033375504       0.500003207215673
   C              0.740992881334712       0.592755759293772       0.499999364857160
   C              0.666837613961605       0.555661405742602       0.500003207617279
   C              0.740982650752823       0.703929517638354       0.500001695408072
   C              0.666847997869047       0.666855996663089       0.500002966246713
   C              0.740998744463950       0.815141725692419       0.500000699134079
   C              0.666883040365465       0.778088624540416       0.500000271316939
   C              0.740972393170102       0.926186912516754       0.500000654692138
   C              0.666917070975891       0.889251841538723       0.500000725789265
   C              0.852033177493189       0.036868701302830       0.500000654372184
   C              0.777958463670431      -0.000076007337531       0.500000613306512
   C              0.852059553103944       0.148006260547401       0.500000648802865
   C              0.777925715776829       0.110912371350923       0.500000598914161
   C              0.852102519698169       0.259217765054343       0.500000702349161
   C              0.777969487011842       0.222107848053004       0.500000703926785
   C              0.852150328120275       0.370432932475165       0.500000485406559
   C              0.778018979269383       0.333325049887408       0.500000740039998
   C              0.852195648032384       0.481634059742240       0.500000696516689
   C              0.778061893651663       0.444534327473106       0.500000545295006
   C              0.852216970456214       0.592814353920543       0.500001023408715
   C              0.778088552763722       0.555723850060578       0.500001049639479
   C              0.852198616868739       0.703951243252732       0.500000703377326
   C              0.778074168167460       0.666886738971167       0.500000578248941
   C              0.852111349857663       0.815041341784265       0.500000568694541
   C              0.778025358818376       0.778041433616280       0.500000769863633
   C              0.852034257684622       0.926105645670139       0.500000711803171
   C              0.778017342986965       0.889208803847380       0.500000704804557
   C              0.963072129903794       0.036942937386742       0.500000714521283
   C              0.889074223300239      -0.000094566706634       0.500000734552121
   C              0.963043028214039       0.148028625810034       0.500001016605953
   C              0.889058820461831       0.110936135118278       0.500000785791851
   C              0.963057992302673       0.259189604006540       0.500000717841376
   C              0.889090195789709       0.222128022560855       0.500000733484535
   C              0.963101129451240       0.370383370527659       0.500000533951679
   C              0.889135881835523       0.333340835322691       0.500000546198000
   C              0.963151027167460       0.481587331319127       0.500000689074320
   C              0.889186686566950       0.444551403519676       0.500000700607161
   C              0.963194269157314       0.592782802202050       0.500000621069008
   C              0.889228594873508       0.555745970046239       0.500000757667613
   C              0.963214158967726       0.703951003500984       0.500000619905853
   C              0.889240165151867       0.666913728216352       0.500000756541850
   C              0.963156976497047       0.815032578490576       0.500000690687622
   C              0.889180662017003       0.778019374452998       0.500000709268418
   C              0.962989603964994       0.925983143524794       0.500000603519980
   C              0.889031806171302       0.889060728463648       0.500000580655758
%ENDBLOCK positions_frac

FIX_COM : false

%BLOCK species_gamma
   radsectesla
   H          267522128.0    
%ENDBLOCK species_gamma

%BLOCK species_pot
   H       1|0.6|13|15|17|10(qc=8)
   C       1|1.2|17|20|23|20N:21L(qc=8)
%ENDBLOCK species_pot

SYMMETRY_TOL :     0.001000

%BLOCK symmetry_ops
# Symm. op. 1       E
          1.000000000000000       0.000000000000000       0.000000000000000
          0.000000000000000       1.000000000000000       0.000000000000000
          0.000000000000000       0.000000000000000       1.000000000000000
          0.000000000000000       0.000000000000000       0.000000000000000
%ENDBLOCK symmetry_ops

kpoint_mp_grid :    1   1   1

