# CELL file written 18:37:47 (GMT+1.0) 29th October 2022 from run 9x9

%BLOCK lattice_cart
   ANG
       22.2300000000000        0.00000000000000        0.00000000000000    
      -11.1150000000000        19.2517450000000        0.00000000000000    
       0.00000000000000        0.00000000000000        20.0340000000000    
%ENDBLOCK lattice_cart

%BLOCK cell_constraints
      0   0   0
      0   0   0
%ENDBLOCK cell_constraints

%BLOCK positions_frac
   H              0.442063653830396       0.439844533867686       0.604684997994932
   H              0.409538715177128       0.374816442303051       0.603166637786091
   C              0.073989947356927       0.036935319371574       0.497780270141739
   C              0.000029283703382      -0.000018135468305       0.497105804670280
   C              0.074021699912715       0.148078708134176       0.497569393603847
   C             -0.000187291276213       0.110922465230932       0.496742601632712
   C              0.073870543357880       0.259052197842753       0.497008811278520
   C              0.000012767851296       0.222115263116337       0.496162262191749
   C              0.073966198171506       0.370101762450955       0.495912395191466
   C             -0.000124886370091       0.333126965773865       0.495372873795459
   C              0.073833980465275       0.481373787455664       0.495349301657191
   C             -0.000190689127993       0.444297710707186       0.495027885898015
   C              0.073758603244955       0.592551526222371       0.495570075413588
   C             -0.000194998104375       0.555493851600947       0.495360336906103
   C              0.073779106324025       0.703739067161956       0.496244751206800
   C             -0.000181270902116       0.666616672365629       0.496063962354906
   C              0.073935342223988       0.815032184049964       0.497103484214031
   C             -0.000216178504712       0.777807337480123       0.496752721167473
   C              0.073830530129301       0.926006391437389       0.497697120272642
   C             -0.000066195363388       0.889040753663637       0.497135349539952
   C              0.184982937295950       0.036811370680227       0.499609197095311
   C              0.110825877191679      -0.000161422236454       0.498306784725682
   C              0.185203550177820       0.148190330709887       0.500386099008188
   C              0.111300216548460       0.111262159882023       0.498263265089236
   C              0.185508322694062       0.259194201718953       0.500960508841283
   C              0.111387780269533       0.222167743460130       0.498096131578287
   C              0.185536361092854       0.370382080902152       0.498779114423927
   C              0.111237312311052       0.333262728776667       0.496915145360004
   C              0.185183177952828       0.481207548586041       0.496881118951868
   C              0.111072479660023       0.444288130730095       0.495895956445160
   C              0.184999003669670       0.592475394486270       0.496126186062965
   C              0.110822705129221       0.555346890509463       0.495564981877100
   C              0.185002194908320       0.703846452577616       0.496272125341250
   C              0.110756980834232       0.666578914607929       0.496007645066028
   C              0.184978465628972       0.815111789197335       0.497094828559045
   C              0.110885836714431       0.777901367396024       0.496822270721649
   C              0.185049719771125       0.926114601016773       0.498292161576558
   C              0.110949566649654       0.889031771619674       0.497763550398198
   C              0.296060956516104       0.036779210560226       0.499621082384273
   C              0.221953970495187      -0.000206900259555       0.499335196706950
   C              0.296249353146959       0.148137425080438       0.503395091419326
   C              0.222067978979845       0.110964626705365       0.501295154042224
   C              0.296507586333420       0.259445005465735       0.510837478033031
   C              0.222152456877822       0.222217214930726       0.503207120780588
   C              0.295976598817926       0.369942162724939       0.513959597705621
   C              0.222950351031601       0.333496277717267       0.503245145883458
   C              0.296773969166930       0.481048204840853       0.503294229921834
   C              0.222404038074008       0.444121507125135       0.498766190134729
   C              0.296522223937223       0.592441287445603       0.498062911112228
   C              0.222068562319156       0.555468202186180       0.496967774906793
   C              0.296147525132367       0.703901732729760       0.496727574580242
   C              0.222080484400906       0.666750333491107       0.496290905772699
   C              0.296181608578246       0.815050616636988       0.496814846349880
   C              0.222100163801370       0.777899990232170       0.496712757201774
   C              0.296255942951218       0.926100044708076       0.497710034928079
   C              0.222082907840459       0.889068688182096       0.497768873090775
   C              0.407144821282059       0.036793204507794       0.497801679581542
   C              0.333155628415921      -0.000268911451371       0.498328646121004
   C              0.407266268946331       0.148089684239407       0.500391686864865
   C              0.333075677208665       0.110899064722848       0.501296522384580
   C              0.407266444980823       0.259397328314573       0.510809101648274
   C              0.332990188547103       0.221723550857129       0.508544508149946
   C              0.406224597206063       0.368138099685727       0.531754234915771
   C              0.332232777384147       0.332110021132430       0.519162168188013
   C              0.407472352903301       0.482430211811636       0.519122561364500
   C              0.333270612365573       0.444615673351237       0.514033322180732
   C              0.407306627221181       0.592424473041366       0.503278357055908
   C              0.333635864676601       0.555450614543818       0.500961980302111
   C              0.407451451009349       0.703562976156885       0.498265173781049
   C              0.333297823492536       0.666620599088520       0.497554137884064
   C              0.407502404835948       0.815136409025010       0.497112354257725
   C              0.333200956578480       0.777931384350922       0.496782737275304
   C              0.407362851470496       0.926135742313517       0.497009437751409
   C              0.333339429666873       0.889179128398383       0.497123036632272
   C              0.518420323173513       0.036780114799602       0.496813292016105
   C              0.444193199175385      -0.000258192382422       0.497118331342144
   C              0.518312693804330       0.147994152279347       0.497589254839071
   C              0.444147669534381       0.111075585924928       0.498286480855796
   C              0.517986481087239       0.259147008917284       0.500961997624741
   C              0.444306313595419       0.222170952030865       0.503200131067690
   C              0.518307738256339       0.369944273838554       0.513963862938799
   C              0.444164231562060       0.332109360917765       0.519148526466778
   C              0.519299052944418       0.482444959880104       0.519184662306657
   C              0.445358433218501       0.446413502345239       0.530725577062680
   C              0.518628215093857       0.592898625135583       0.508631703522516
   C              0.444391102876245       0.555227265479596       0.510924594679668
   C              0.518564344626909       0.703783454216238       0.501328444873224
   C              0.444361661262176       0.666542328189650       0.500402768841992
   C              0.518570423774894       0.815174426343836       0.498360328848499
   C              0.444488032359390       0.777932050916667       0.497804046765364
   C              0.518580891119018       0.926055398239546       0.497154895908684
   C              0.444541967861374       0.889089663960834       0.497017969243540
   C              0.629503269321734       0.036775295667172       0.496752463625146
   C              0.555482816585331      -0.000205342527757       0.496851740740876
   C              0.629504869314061       0.147827341320987       0.496333088333741
   C              0.555436706725751       0.110721385593246       0.496764166732016
   C              0.629534121596146       0.259094847373346       0.497038382948664
   C              0.555092559892007       0.222152212568703       0.498116298545625
   C              0.629210012705938       0.370451256308754       0.498837776218485
   C              0.554862579853907       0.333544151335417       0.503262275598053
   C              0.628654982603082       0.481103110494262       0.503400634405007
   C              0.555674248902829       0.444657674061423       0.514103249168885
   C              0.629490394215843       0.592442094721755       0.503403295093876
   C              0.555167200481954       0.555241549922717       0.510991660495256
   C              0.629619452004498       0.703770048866237       0.501386725043090
   C              0.555455294678556       0.666571648086723       0.503454402069725
   C              0.629805152211489       0.815116086890437       0.499406638074210
   C              0.555614515683924       0.777962614944457       0.499665134751385
   C              0.629819082122788       0.926137598711940       0.497827451825770
   C              0.555630847820667       0.889102354582808       0.497754360082434
   C              0.740727713938595       0.036734805453690       0.496844441033379
   C              0.666627444073898      -0.000315061430918       0.497141260686951
   C              0.740851708426198       0.147967537705691       0.496023154531557
   C              0.666537979526706       0.110738494532044       0.496306201166530
   C              0.740820014275838       0.259212816385761       0.495604994591467
   C              0.666585714020348       0.222105434230354       0.496178551170999
   C              0.740606540978341       0.370296771443156       0.495980554327725
   C              0.666447675774786       0.333398417728836       0.496975157497840
   C              0.740455348421940       0.481367666256108       0.497016411693589
   C              0.666104783201602       0.444244233778996       0.498866854999075
   C              0.740334654524396       0.592526220775791       0.498231570537512
   C              0.666170344102162       0.555500747754571       0.501111474976710
   C              0.740498007267927       0.703546215095137       0.498405126715668
   C              0.666487717172219       0.666505335173392       0.500526723591910
   C              0.741052137720291       0.815115779597302       0.498406886790282
   C              0.666690528049698       0.777911874446101       0.499701891252900
   C              0.740924043392961       0.926134061443429       0.497813135171682
   C              0.666754709756629       0.889027566448867       0.498363137773886
   C              0.851980222611724       0.036856025173728       0.496730559004214
   C              0.777717122228678      -0.000267938928919       0.497118265125654
   C              0.851980682569015       0.148036126735664       0.496023134568473
   C              0.777839146034395       0.110855318278334       0.496243367560183
   C              0.852051632450402       0.259216478533939       0.495341799930362
   C              0.777895047392100       0.222037315881241       0.495582120896509
   C              0.852090508554489       0.370449550978406       0.495058930696941
   C              0.777854451621558       0.333245101422823       0.495402841900108
   C              0.852053155723240       0.481660139717405       0.495451064540170
   C              0.777718225755523       0.444529226566627       0.496004966535802
   C              0.851914981458537       0.592684395390474       0.496283894933299
   C              0.777828305702280       0.555622687946635       0.497133049379127
   C              0.852146444664814       0.703956212595904       0.496876796688663
   C              0.777669830737929       0.666612371614373       0.497719044708451
   C              0.851975614159303       0.814999861740459       0.497194390738585
   C              0.777751483298980       0.777825643213875       0.497901237078770
   C              0.851933825444823       0.925982517427404       0.497151722419052
   C              0.777924068876918       0.889047644878478       0.497759040521210
   C              0.962935280205867       0.036946087112855       0.496791200019546
   C              0.889006327740191      -0.000082188113094       0.496829866681684
   C              0.963016042787752       0.147971909221513       0.496314978173877
   C              0.889071917727808       0.110901558639808       0.496294222470338
   C              0.963131218236782       0.259243015022302       0.495595065850792
   C              0.889075408973558       0.222113406131805       0.495582338553057
   C              0.963073694111481       0.370369221401002       0.495032626155204
   C              0.889123773286017       0.333354270170304       0.495042427769673
   C              0.963064581008847       0.481524507972403       0.495055222265992
   C              0.889100827151350       0.444503058684242       0.495076619141255
   C              0.963097819721191       0.592739234021897       0.495636484037657
   C              0.889006738176937       0.555626012527608       0.495684846899484
   C              0.963075811767163       0.703929228150890       0.496356010745663
   C              0.889064386289155       0.666863610505150       0.496432573896755
   C              0.963062637765202       0.814919469035594       0.496865107689626
   C              0.889071939565950       0.777869683768699       0.496887851765563
   C              0.962990100333638       0.925937376225921       0.497016930650039
   C              0.888894857529882       0.888959322647692       0.497042783579635
%ENDBLOCK positions_frac

FIX_COM : false

%BLOCK species_gamma
   radsectesla
   H          267522128.0    
%ENDBLOCK species_gamma

%BLOCK species_pot
   H       1|0.8|14|16|19|10N(qc=8)
   C       1|1.2|17|20|23|20N:21L(qc=8)
%ENDBLOCK species_pot

SYMMETRY_TOL :     0.001000

%BLOCK symmetry_ops
# Symm. op. 1       E
          1.000000000000000       0.000000000000000       0.000000000000000
          0.000000000000000       1.000000000000000       0.000000000000000
          0.000000000000000       0.000000000000000       1.000000000000000
          0.000000000000000       0.000000000000000       0.000000000000000
%ENDBLOCK symmetry_ops

kpoint_mp_grid :    1   1   1

